Zr6 Sb6
1.0
   3.8477089175249555   -0.0000000000000000    0.0000000000000000
  -1.9238539432884019    5.2516410455256128   -0.0000000000000000
   0.0000000000000000   -0.0000000000000000   14.1525718650872196
Zr Sb
6 6
direct
   0.3783930074707382    0.7567868085491424    0.7499999644157540 Zr
   0.6216069215161772    0.2432130837332646    0.2499999890531205 Zr
   0.0719320852739869    0.1438634713318570    0.8908143151596380 Zr
   0.9280678011562552    0.8561363461270260    0.1091858396839827 Zr
   0.9280677927596303    0.8561363903146074    0.3908140631888709 Zr
   0.0719324128354750    0.1438636453076930    0.6091858705803878 Zr
   0.6637956566895841    0.3275919810471293    0.7499999248121333 Sb
   0.3362043237619532    0.6724084789438497    0.2500000077136600 Sb
   0.6377122605804468    0.2754247082719157    0.4530990833619245 Sb
   0.3622877129446490    0.7245751940190236    0.5469008374214545 Sb
   0.3622877587993153    0.7245752827561086    0.9530991679109225 Sb
   0.6377122678386880    0.2754246110700479    0.0469009331003532 Sb
