Zr12 Sb4
1.0
   0.0000000200000000   -0.0000000000000000    5.7134847999999998
  -5.7019721199999998    5.7024331100000003    2.8567403499999999
  -5.7024331000000004   -5.7019721299999997    2.8567403499999999
Zr Sb
12 4
direct
   0.8956161900000000    0.9741147100000001    0.8135500000000001 Zr
   0.6832819000000000    0.0258852900000000    0.1864500000000000 Zr
   0.1302681000000000    0.1864500000000000    0.9741147100000001 Zr
   0.2908338100000000    0.8135500000000001    0.0258852900000000 Zr
   0.6163511400000000    0.3833112600000000    0.3322966900000000 Zr
   0.3319590900000000    0.6166887400000000    0.6677033100000000 Zr
   0.0003375999999990    0.6677033100000000    0.3833112600000000 Zr
   0.0513521700000000    0.3322966900000000    0.6166887400000000 Zr
   0.0217880200000000    0.0319390500000000    0.3993814500000000 Zr
   0.4531095100000000    0.9680609500000000    0.6006185500000000 Zr
   0.9462729300000000    0.6006185500000000    0.0319390500000000 Zr
   0.5788295400000000    0.3993814500000000    0.9680609500000000 Zr
   0.1817334400000000    0.3256772400000000    0.2537609900000000 Sb
   0.7611736700000000    0.6743227600000000    0.7462390100000000 Sb
   0.4925873100000000    0.7462390100000000    0.3256772400000000 Sb
   0.5645035700000001    0.2537609900000000    0.6743227600000000 Sb
