Zr8 Sb16
1.0
   3.9406834794588184   -0.0000000000000000   -0.0000000000000000
  -0.0000000000000000   10.0673265409331272    0.0000000000000000
  -0.0000000000000000   -0.0000000000000000   15.0784432988358574
Zr Sb
8 16
direct
   0.4999999720745399    0.6743362869336258    0.9932971562418825 Zr
   0.4999999920673901    0.3256637041246306    0.0067028627666802 Zr
  -0.0000000549183172    0.1743364683090963    0.5067028549335418 Zr
  -0.0000000060435224    0.8256636925579879    0.4932970898965969 Zr
   0.0000000482657078    0.9781181070832063    0.7468951165635939 Zr
  -0.0000000077865549    0.0218819412537550    0.2531049105778111 Zr
   0.5000001076371635    0.4781180296501708    0.7531049493767934 Zr
   0.5000000171588267    0.5218819193993138    0.2468950239222711 Zr
   0.0000000225029004    0.8855270798698723    0.9403800030786887 Sb
   0.0000000054005655    0.1144728987853983    0.0596199338337932 Sb
   0.5000000111754561    0.3855271802386578    0.5596200300569650 Sb
   0.5000000028727140    0.6144726990621696    0.4403800588548601 Sb
   0.0000000170149769    0.6687061650027303    0.6613660959520423 Sb
  -0.0000000014459532    0.3312937686629261    0.3386339095884180 Sb
   0.4999999390750904    0.1687061711163561    0.8386339264152862 Sb
   0.4999999927299121    0.8312937596111455    0.1613660588504080 Sb
   0.4999999983664390    0.7658472253248751    0.8004604868443548 Sb
   0.4999999910036851    0.2341527910582855    0.1995395335781968 Sb
   0.0000000607056046    0.2658472231394239    0.6995395033549400 Sb
   0.0000000007096873    0.7341527807820394    0.3004605153379567 Sb
   0.4999999836754119    0.9865123397615273    0.5992549593689916 Sb
   0.4999999920413238    0.0134876697298194    0.4007450371128196 Sb
  -0.0000000807537901    0.4865123964192505    0.9007450128916775 Sb
  -0.0000000103679713    0.5134877085544981    0.0992549693554397 Sb
