Sb2
1.0
   3.8485638439584360    0.0059644153411468    2.5132086874760469
   1.3634807943321534    3.5989456487906324    2.5132087175760947
   0.0086224605159897    0.0059644053077965    4.5964752644406977
Sb
2
direct
   0.2678342346082832    0.2678342002865868    0.2678342372260931 Sb
   0.7321657653228714    0.7321657996837605    0.7321657624408070 Sb
