Zr4 Sb2
1.0
   4.0143459944821842   -0.0000000200392373   -1.0134559482118837
  -0.2558574843735376    4.0061831113841864   -1.0134559381922652
   0.0162902266087315    0.0173639990779691    8.5217495561239662
Zr Sb
4 2
direct
   0.5000005284240912    0.0000000548401866   -0.0000000203501379 Zr
  -0.0000006671772013    0.4999998510847621   -0.0000000156128622 Zr
   0.3224655239106913    0.3224654666393121    0.6449308819593390 Zr
   0.6775344829377558    0.6775345478759709    0.3550690923912793 Zr
   0.1397313623495795    0.1397313304125380    0.2794625895892667 Sb
   0.8602687696640494    0.8602687463845680    0.7205374701200484 Sb
