Zr4 Sb2
1.0
   4.0064858200000000   -0.0000000200000000   -1.0114715800000000
  -0.2553565100000000    3.9983389200000001   -1.0114715700000001
   0.0162583300000000    0.0173300000000000    8.5050637899999995
Zr Sb
4 2
direct
   0.5000000000000000   -0.0000000000000000    0.0000000000000000 Zr
  -0.0000000000000000    0.5000000000000000    0.0000000000000000 Zr
   0.3224153500000000    0.3224153500000000    0.6448307000000000 Zr
   0.6775846500000000    0.6775846500000000    0.3551692999999990 Zr
   0.1383443500000000    0.1383443500000000    0.2766887000000000 Sb
   0.8616556500000000    0.8616556500000000    0.7233113000000000 Sb
