Zr6 Sb2
1.0
   5.6239795180208860   -0.0000000000000000    0.0000000000000000
  -0.0000000000000000    5.6239795180208860   -0.0000000000000000
  -0.0000000000000000   -0.0000000000000000    5.6239795180208860
Zr Sb
6 2
direct
   0.0000001570380725    0.5000001231247510    0.2499998286657935 Zr
  -0.0000001331929006    0.4999998297679897    0.7500000032031987 Zr
   0.4999999796159119    0.7500000934694758    0.0000000747599532 Zr
   0.5000000701095697    0.2499999668427366   -0.0000001248036623 Zr
   0.7500000053389851    0.0000001306852093    0.5000000568566232 Zr
   0.2500000045621956   -0.0000000799023297    0.5000001034775070 Zr
   0.4999999745140798    0.4999999787469152    0.4999999970641650 Sb
  -0.0000000404075719   -0.0000000746932173    0.0000000430350156 Sb
