Zr12 Sb4
1.0
   0.0000000199793178    0.0000000000000000    5.7075764298124358
  -5.6960756551868510    5.6965361684725639    2.8537861670261773
  -5.6965361584830294   -5.6960756651764868    2.8537861670261977
Zr Sb
12 4
direct
   0.8790162098873504    0.9851796594979130    0.8213751171160729 Zr
   0.6855711730680391    0.0148202131649283    0.1786248606967780 Zr
   0.1358037452764496    0.1786246980883260    0.9851795703313710 Zr
   0.2996084531131037    0.8213751844257497    0.0148203262601268 Zr
   0.6384658056451453    0.3618698524521182    0.3395235468925547 Zr
   0.3398597283141505    0.6381304523947731    0.6604765212946441 Zr
  -0.0003367473497293    0.6604762750155531    0.3618697732363225 Zr
   0.0220092453538785    0.3395234497534208    0.6381303277745314 Zr
   0.0085106193300465    0.0194586217637344    0.4254417137731653 Zr
   0.4534111115818392    0.9805412990692488    0.5745582759412712 Zr
   0.9720301104854336    0.5745584339202506    0.0194586053843109 Zr
   0.5660472081987452    0.4254416842417020    0.9805415895578332 Zr
   0.2009202800410314    0.3067288173546051    0.2699610867045892 Sb
   0.7776074762329951    0.6932713758513066    0.7300387410125639 Sb
   0.4923528303132624    0.7300390705743393    0.3067284875070888 Sb
   0.5291207461487692    0.2699609124043770    0.6932714797699533 Sb
