Zr8 Sb16
1.0
   3.9340291499999989    0.0000000000000000    0.0000000000000000
   0.0000000000000000   10.0503266199999999    0.0000000000000000
   0.0000000000000000   -0.0000000000000000   15.0529814900000005
Zr Sb
8 16
direct
   0.5000000000000000    0.6689540400000000    0.9930255300000000 Zr
   0.5000000000000000    0.3310459600000000    0.0069744700000000 Zr
   0.0000000000000000    0.1689540400000000    0.5069744700000001 Zr
  -0.0000000000000000    0.8310459600000000    0.4930255300000000 Zr
   0.0000000000000000    0.9798947600000000    0.7489013200000000 Zr
  -0.0000000000000000    0.0201052400000000    0.2510986800000000 Zr
   0.5000000000000000    0.4798947600000000    0.7510986800000000 Zr
   0.5000000000000000    0.5201052400000000    0.2489013200000000 Zr
   0.0000000000000000    0.8834973100000000    0.9417934400000000 Sb
   0.0000000000000000    0.1165026900000000    0.0582065600000000 Sb
   0.5000000000000000    0.3834973100000000    0.5582065600000000 Sb
   0.5000000000000000    0.6165026900000000    0.4417934400000000 Sb
   0.0000000000000000    0.6627912900000000    0.6591016200000001 Sb
   0.0000000000000000    0.3372087100000000    0.3408983800000000 Sb
   0.5000000000000000    0.1627912900000000    0.8408983800000001 Sb
   0.5000000000000000    0.8372087100000000    0.1591016200000000 Sb
   0.5000000000000000    0.7713131800000000    0.8021158900000001 Sb
   0.5000000000000000    0.2286868200000000    0.1978841100000000 Sb
  -0.0000000000000000    0.2713131800000000    0.6978841100000001 Sb
  -0.0000000000000000    0.7286868200000001    0.3021158900000000 Sb
   0.5000000000000000    0.9880450900000001    0.6024419300000000 Sb
   0.5000000000000000    0.0119549100000000    0.3975580700000000 Sb
  -0.0000000000000000    0.4880450900000000    0.8975580700000000 Sb
   0.0000000000000000    0.5119549100000000    0.1024419300000000 Sb
