Zr20 Sb12
1.0
   7.6092203500000002   -0.0000000000000000    0.0000000000000000
  -0.0000000000000000    8.8499795100000007    0.0000000000000000
   0.0000000000000000    0.0000000000000000   10.8451378199999997
Zr Sb
20 12
direct
   0.4723377500000000    0.7500000000000000    0.4966672600000000 Zr
   0.9723377500000000    0.2500000000000000    0.0033327400000000 Zr
   0.5276622500000000    0.2500000000000000    0.5033327400000001 Zr
   0.0276622500000000    0.7500000000000000    0.9966672600000001 Zr
   0.3185371300000000    0.7500000000000000    0.7667910200000000 Zr
   0.8185371300000001    0.2500000000000000    0.7332089800000000 Zr
   0.6814628700000001    0.2500000000000000    0.2332089800000000 Zr
   0.1814628700000000    0.7500000000000000    0.2667910200000000 Zr
   0.1728167900000000    0.2500000000000000    0.2887369300000000 Zr
   0.6728167900000001    0.7500000000000000    0.2112630700000000 Zr
   0.8271832100000001    0.7500000000000000    0.7112630700000000 Zr
   0.3271832100000000    0.2500000000000000    0.7887369300000000 Zr
   0.1994192300000000    0.4439636900000000    0.5531619900000000 Zr
   0.6994192300000001    0.5560363100000000    0.9468380100000000 Zr
   0.8005807700000001    0.9439636900000000    0.4468380100000000 Zr
   0.3005807700000000    0.0560363100000000    0.0531619900000000 Zr
   0.8005807700000001    0.5560363100000000    0.4468380100000000 Zr
   0.3005807700000000    0.4439636900000000    0.0531619900000000 Zr
   0.1994192300000000    0.0560363100000000    0.5531619900000000 Zr
   0.6994192300000001    0.9439636900000000    0.9468380100000000 Zr
   0.0892834300000000    0.7500000000000000    0.5254909700000000 Sb
   0.5892834300000001    0.2500000000000000    0.9745090300000000 Sb
   0.9107165700000001    0.2500000000000000    0.4745090300000000 Sb
   0.4107165700000000    0.7500000000000000    0.0254909700000000 Sb
   0.0657490900000000    0.0077891500000000    0.8221682700000000 Sb
   0.5657490900000001    0.9922108500000000    0.6778317300000000 Sb
   0.9342509100000000    0.5077891500000000    0.1778317300000000 Sb
   0.4342509100000000    0.4922108500000000    0.3221682700000000 Sb
   0.9342509100000000    0.9922108500000000    0.1778317300000000 Sb
   0.4342509100000000    0.0077891500000000    0.3221682700000000 Sb
   0.0657490900000000    0.4922108500000000    0.8221682700000000 Sb
   0.5657490900000001    0.5077891500000000    0.6778317300000000 Sb
