Zr6 Sb2
1.0
   4.4812389499999998    0.0000000000000000    0.0000000000000000
   0.0000000000000000    4.4812389499999998   -0.0000000000000000
   0.0000000000000000    0.0000000000000000    4.4812389499999998
Zr Sb
6 2
direct
   0.0000000000000000    0.5000000000000000    0.2500000000000000 Zr
   0.0000000000000000    0.5000000000000000    0.7500000000000000 Zr
   0.5000000000000000    0.7500000000000000   -0.0000000000000000 Zr
   0.5000000000000000    0.2500000000000000   -0.0000000000000000 Zr
   0.7500000000000000    0.0000000000000000    0.5000000000000000 Zr
   0.2500000000000000    0.0000000000000000    0.5000000000000000 Zr
   0.5000000000000000    0.5000000000000000    0.5000000000000000 Sb
   0.0000000000000000    0.0000000000000000   -0.0000000000000000 Sb
