Zr20 Sb12
1.0
   7.6116213615217339    0.0000000000000000    0.0000000000000000
  -0.0000000000000000    8.8527720303625639    0.0000000000000000
   0.0000000000000000    0.0000000000000000   10.8485598921260564
Zr Sb
20 12
direct
   0.4808840852204697    0.7499999989443082    0.4976197400611968 Zr
   0.9808839421978337    0.2499999470813112    0.0023802831978817 Zr
   0.5191159413857105    0.2500000101384539    0.5023803250169817 Zr
   0.0191158037547006    0.7499999476445829    0.9976196960565401 Zr
   0.3214717863503699    0.7499999963380491    0.7676176291444090 Zr
   0.8214717348884342    0.2499999781804917    0.7323826776998792 Zr
   0.6785282549456259    0.2499999628603162    0.2323826362344321 Zr
   0.1785281690146159    0.7499999968344792    0.2676177365941836 Zr
   0.1701415373455638    0.2500000046290979    0.2817540612066796 Zr
   0.6701413216565275    0.7500000612285374    0.2182457582176984 Zr
   0.8298588221823874    0.7499999726467688    0.7182455401954672 Zr
   0.3298586136335774    0.2500000003609986    0.7817541232428223 Zr
   0.2025910572518971    0.4436084508797856    0.5586749326763972 Zr
   0.7025909396182601    0.5563907759902672    0.9413251132538640 Zr
   0.7974092567659898    0.9436088160168626    0.4413252053933134 Zr
   0.2974093212675792    0.0563913587668683    0.0586748560720822 Zr
   0.7974094588971281    0.5563904117780520    0.4413252212697291 Zr
   0.2974093751034191    0.4436094172289931    0.0586748492765037 Zr
   0.2025906068733293    0.0563909488186312    0.5586748605061513 Zr
   0.7025904765415929    0.9436097607374005    0.9413252410838838 Zr
   0.0905370954125072    0.7500007323674800    0.5268007463467660 Sb
   0.5905379247949909    0.2499993074968655    0.9731990843179216 Sb
   0.9094621376970348    0.2500006468554311    0.4731991149723704 Sb
   0.4094624173475085    0.7499994754065032    0.0268006382398870 Sb
   0.0643988295739384    0.0061468434792147    0.8198934043452919 Sb
   0.5643991183216133    0.9938532293169735    0.6801066084593215 Sb
   0.9356009510280004    0.5061467746026231    0.1801065797626593 Sb
   0.4356009650092771    0.4938532177792000    0.3198933243923368 Sb
   0.9356010641283712    0.9938532382987796    0.1801066055320760 Sb
   0.4356009856402193    0.0061467917764557    0.3198934236119012 Sb
   0.0643989687788433    0.4938531643958762    0.8198934074800077 Sb
   0.5643990427411321    0.5061467585872194    0.6801065792013049 Sb
