Cu La O 
 1.0000000000000000
     3.7999999999999998    0.0000000000000000    0.0000000000000002
    -0.0000000000000002    3.7999999999999998    0.0000000000000002
     0.0000000000000000    0.0000000000000000   13.8599999999999994
 Cu  La  O  
   2   4   8
Direct
 -0.0880645366741846 -0.0013628697902491  0.0326209751560480
 -0.2968944804872553  0.4848321937527961  0.3892526085142977
  0.1895969374991321  0.0018692064229731  0.3121626895319961
  0.3822968213491370 -0.1574566553080042  0.5778105286354469
 -0.5514840235165522 -0.5019977176635158  0.8808494613482958
 -0.3650906512287266  0.4971000738927679  0.2216743120804754
 -0.0388458567744329  0.4982329460629914 -0.0268697879820677
  0.2046421045389920 -0.0039083394543761  0.1387690015071852
  0.3748553650777794  0.3300850193665067  0.4938817032327326
  0.8664887808632662 -0.1853996303246222  0.4930428180280079
 -0.2427221159717180  0.5106036392634545  0.2429133024340816
 -0.4943866232740904 -0.0017485614756075  0.9513756785740471
  0.3546529795081148 -0.1571792501664806  0.5813298520439052
  0.2040661461243412  0.0202730821144446  0.3179357198881356
