Cu La O 
 1.0000000000000000
     3.7999999999999998    0.0000000000000000    0.0000000000000002
    -0.0000000000000002    3.7999999999999998    0.0000000000000002
     0.0000000000000000    0.0000000000000000   13.1999999999999993
 Cu  La  O  
   2   4   8
Direct
  0.2203373552004093 -0.4400320320634223 -0.1557696251684508
  0.8016046642978230  0.2158552350856418  0.3876009137838767
  0.2864011896565936  0.6803348607723821  0.2227151386848580
  0.3278960800380389 -0.2612568779464370  0.4955794880711566
 -0.2876441637750051  0.0216292658145615  0.6981908276512163
 -0.2470866877858690  0.1074036733704301 -0.0045676544016697
 -0.2801689578314435  0.5501376092411884 -0.1504198179547325
  0.2106659402066030  0.0580884302945126 -0.1954154257724490
  0.8160018706377126  0.7161619648775333  0.3492837604225994
  0.3010796141129903  0.2248703082411920  0.3485727762091172
 -0.2049518742735629 -0.7465764137098733  0.1618259154475912
 -0.0514502334199261  0.4974593736540192  0.6152739448344654
  0.4276753284819771 -0.1723556122412307  0.5118372157306744
  0.2468535383778978 -0.2744961716703950  0.0265270573036925
