Cu La O 
 1.0000000000000000
     3.7999999999999998    0.0000000000000000    0.0000000000000002
    -0.0000000000000002    3.7999999999999998    0.0000000000000002
     0.0000000000000000    0.0000000000000000   13.4639999999999986
 Cu  La  O  
   2   4   8
Direct
  0.0642773382471624 -0.0480984527539424 -0.1434624000895426
 -0.4234108415508905 -0.0216355890931852  0.5575776887963129
 -0.1057212624657597  0.1238303736268533  0.4947470899449479
 -0.4514091663566491  0.0737950141425585  0.5581190076926634
  0.0859672311005487 -0.0919619919715636  0.8477825722853406
  0.4523525666861634 -0.1227306670132977  0.1202198824295633
  0.1920765102238030  0.3778156916924675  0.1631539387380746
  0.9399934375192036 -0.1120966822660331  0.0047779138004055
  0.4632055255929447  0.6126273451020916  0.4369485675410910
  0.1409276589606573 -0.3668411756281505  0.6067627695406462
  0.3829195516729795  0.3903039315433967 -0.1134756177413198
 -0.1604700990047470  0.1968086324464355  0.7148861854672309
 -0.3892066346169245 -0.1110306466679721  0.7393645728865487
 -0.1914982998032351  0.0992161417390899  0.5126014721493430
