Cu La O 
 1.0000000000000000
     3.7999999999999998    0.0000000000000000    0.0000000000000002
    -0.0000000000000002    3.7999999999999998    0.0000000000000002
     0.0000000000000000    0.0000000000000000   14.5199999999999996
 Cu  La  O  
   2   4   8
Direct
 -0.2380918542802027 -0.1644771287207415 -0.0418217242563892
 -0.1344377184719805  0.2132407196253825  0.4939413981193200
 -0.2276840934306122 -0.2933529254766547  0.3306081836565533
  0.3772369334053066 -0.2733200380186664  0.6219688666998371
  0.2271821873692443  0.1730362278051742  0.8582182987608185
  0.2642386411890139  0.0105713653317223  0.1747376059629800
 -0.2028038330722263  0.3519692853769668  0.1610302723762342
  0.2683423167920739 -0.1182993470259149  0.0078230770546536
 -0.1211432450620982  0.7136871871520937  0.5149688389253371
  0.2841935755214444  0.2442786721187826  0.3310688690205467
  0.2889534166909098 -0.0089798855090587  0.1761626792117575
  0.2162077569770386  0.1358367889740432  0.8713553454624225
  0.2184510270453279  0.2325649028217450  0.7013008192574151
 -0.2209569302045012 -0.2171035246284102  0.2987511584843352
