Al Mg Al
 1.0000000000000000
     8.1032050232892239    0.0000000000000000   -0.0000000000000000
     0.0000000000000000    8.1032050232892239   -0.0000000000000000
     0.0000000000000000    0.0000000000000000    8.1032050232892239
 Al  Mg  Al 
  28   1   3
Direct
 -0.0000000471959206 -0.0000001131715569 -0.0000001257535906
 -0.0000000029116726  0.2498810563060651  0.2498812259982997
  0.2498816625845375  0.0000000100079076  0.2498815935183616
  0.2498811796622969  0.2498811127163370 -0.0000000201374106
 -0.0000000061186235  0.0000000694597804  0.5000000403964165
  0.0000000487730027  0.2498812381426829  0.7501187403201272
  0.2498810815670326  0.0000001060377786  0.7501188196516498
  0.2452712708853878  0.2452712394295840  0.4999999633875088
 -0.0000000047875591  0.5000000128104088 -0.0000000676906771
  0.0000000260816273  0.7501189314825836  0.2498813084231032
  0.2452712321302529  0.4999999301764926  0.2452712730340111
  0.2498811999950920  0.7501189629207640 -0.0000000611007102
  0.0000001797016149  0.5000000131550600  0.4999999980243300
  0.0000001635422814  0.7501187336161755  0.7501187764891055
  0.2452710744757886  0.5000001039224781  0.7547288078844027
  0.2452705748047928  0.7547289000601975  0.4999999888153618
  0.4999999781141756  0.0000000774229744  0.0000000823850648
  0.4999999458552241  0.2452711815078969  0.2452712343319221
  0.7501188492860754 -0.0000000191819670  0.2498811128438008
  0.7501186812300967  0.2498811855035639 -0.0000000307991975
  0.4999999861514369  0.0000000795771157  0.4999998311843750
  0.4999999234331339  0.2452705787020447  0.7547287779675965
  0.7501189313684581  0.0000000076175665  0.7501190228968450
  0.7547286197980384  0.2452712290690576  0.4999999794011243
  0.5000000090305522  0.5000000740918239  0.0000000382368833
  0.5000001981867245  0.7547287548083953  0.2452711709532424
  0.7547289091138264  0.5000000411295399  0.2452712677155887
  0.7501186808035820  0.7501188796852809  0.0000000361255873
  0.4999999353823279  0.4999999785418391  0.4999998797876735
  0.5000001474591391  0.7547287588165471  0.7547287051009087
  0.7547288997539113  0.5000000806050060  0.7547287126446859
  0.7547286708138921  0.7547288084298933  0.4999999174229185
