Al Cu Al
 1.0000000000000000
     8.0825830765207893   -0.0000000000000000    0.0000000000000000
    -0.0000000000000000    8.0825830765207893   -0.0000000000000000
     0.0000000000000000   -0.0000000000000000    8.0825830765207893
 Al  Cu  Al 
  28   1   3
Direct
  0.0000001148366372 -0.0000002135420772  0.0000000212079281
  0.0000003175220271  0.2504430445158165  0.2504429867657088
  0.2504426584212658 -0.0000001472043106  0.2504427852716504
  0.2504425463854666  0.2504425522602738 -0.0000002114264065
  0.0000001662127205 -0.0000005456926158  0.5000001623560947
 -0.0000002074685034  0.2504427965837178  0.7495572995385396
  0.2504429216385358  0.0000002699037614  0.7495571603526607
  0.2549963029246744  0.2549961738047329  0.4999999328608171
  0.0000003474026877  0.4999996688062484  0.0000002788748970
 -0.0000002037882480  0.7495574467908679  0.2504423070160837
  0.2549963643557377  0.5000001427331374  0.2549957822952094
  0.2504426594764842  0.7495574504151011  0.0000001162610966
 -0.0000001390825279  0.5000001320352758  0.4999999139154349
  0.0000000306037069  0.7495571965483478  0.7495574415653172
  0.2549963669689840  0.5000001209117239  0.7450037578826305
  0.2549960458487333  0.7450038205360460  0.4999999696150562
  0.5000001523798394  0.0000001752977524  0.0000004242548973
  0.4999997693613241  0.2549960975363128  0.2549958181390614
  0.7495575805077626  0.0000000317708082  0.2504429367062821
  0.7495572547059222  0.2504427555783525  0.0000000638374026
  0.4999999408504371  0.0000002066350379  0.5000000181904721
  0.4999998412199141  0.2549961047357187  0.7450039361051387
  0.7495571555528756  0.0000000110370042  0.7495571804105742
  0.7450034097867425  0.2549960831154318  0.4999997689406410
  0.4999997296869951  0.5000001815059987 -0.0000000205948692
  0.5000001555982201  0.7450038793112974  0.2549963513190351
  0.7450037994763008  0.4999999832562483  0.2549963417197993
  0.7495572030229404  0.7495571531111769  0.0000001526707521
  0.5000001511344982  0.4999998871600708  0.5000005001340445
  0.4999999493994023  0.7450036141663243  0.7450032772275682
  0.7450038220506188  0.5000002296140416  0.7450034840890227
  0.7450037931941823  0.7450036924903662  0.5000000660393999
