Al Cu
 1.0000000000000000
    12.0924968395439123   -0.0000000000000000    0.0000000000000000
    -0.0000000000000000   12.0924968395439123   -0.0000000000000000
    -0.0000000000000000   -0.0000000000000000   12.0924968395439123
 Al  Cu 
 104   4
Direct
  0.0004473448607192  0.0002749780265467  0.0048735633938480
  0.6679284864416207  0.1677717978905119  0.5011616440848500
  0.6668322434611966  0.0016298911488575  0.3342997046169721
  0.8339542881161782  0.1683284542518001 -0.0022696786718639
  0.8309220406582207 -0.0001946319266215  0.1667573648474738
  0.6663047956327821  0.1668788969235819  0.1673537144585651
  0.6684168173615552 -0.0001069863373713 -0.0018401384433683
  0.4995401804116706  0.8297842947133185  0.6663197525618808
  0.4997785512629148  0.6656695057940359  0.8328886406205230
  0.3318551767531050  0.8330492582063511  0.8316482773959588
  0.3291785961940725  0.6618011700031861  0.6664939805076163
  0.5016355484586166  0.8337656176612512  0.3340613128932335
  0.4990038239447324  0.6649398869853692  0.4993702872346906
  0.3322159219626312  0.8325988735411234  0.5036235904093719
  0.3323818958328763  0.6704682056663314  0.3340654388683201
  0.4996404457420248  0.8335178038701254  0.0002974396119063
  0.4990858411061252  0.6648646596722293  0.1670725914776789
  0.3327779218929494  0.8335968276893123  0.1651042785415334
  0.3326288253476543  0.6647875085041284 -0.0006686736793396
  0.5004461212940126  0.4996047189694082  0.6665363392315040
  0.4999421962164823  0.3339100619088405  0.8330763580395023
  0.3291799314764304  0.5008556718741234  0.8310522455691760
  0.3282338688130230  0.3369152511854430  0.6690332973183469
  0.4949720153005656  0.4962728823135015  0.3361954526432613
  0.8380385026537843 -0.0001325712646130  0.5010899687040884
  0.4967249811011144  0.3337403885026099  0.4992698614948961
  0.8337358152555133  0.1655414900067306  0.3366732396237581
  0.6679953827575177  0.1669333533615811  0.8324047160753638
  0.6684633376833431  0.8328796962453638  0.8309806071649272
  0.6698517996593367  0.6644649171825834  0.6660205602048991
  0.8341453489449867  0.8325162101668060  0.3363516907359352
  0.8344116066995314  0.6619236675404410  0.5048156096112807
  0.6683415210913937  0.8328981489433315  0.5020697036132521
  0.6660696253828690  0.6649439783506118  0.3352340629671963
  0.8343326046388149  0.8330234536591886 -0.0031782216547608
  0.8333865281530800  0.6691157255109397  0.1663868677183636
  0.6668058742555469  0.8329308755030244  0.1672065859988266
  0.6672071127766686  0.6658732707616439 -0.0020298463536531
  0.8347414624026180  0.3369180060844654  0.8273732788848127
  0.6710577728374576  0.4997609832431061  0.8288245839454235
  0.6690298926414523  0.3343451206581139  0.6666301422242430
  0.8322880762797569  0.5014095462723779  0.3291115801420615
  0.8344334173495594  0.3381506578639530  0.5066521146379673
  0.6687687498298719  0.4990751401500551  0.5030729490081227
  0.6699716644723051  0.3340155950049876  0.3355682511348656
  0.8326364890792218  0.4996315751303346  0.0041610346052821
  0.8326613547203615  0.3309738745939486  0.1653864108913290
  0.6630945582565166  0.4992714819390708  0.1672721186620579
  0.6663580115780519  0.3340874989429818 -0.0013974951311966
  0.8366658393485104  0.1609449206430223  0.6658426188132294
  0.8385641286805617  0.0002481038430760  0.8314258028281095
  0.6617793316723419  0.0003945862829409  0.6663469565138961
  0.8343638474736146  0.6630807515774382  0.8280897118142735
  0.3300798233794663  0.4974335925378529  0.5003630140980518
  0.4999958367763353  0.4997803874292461 -0.0029356720306560
  0.1644130934368182  0.3367795974570139  0.8304152320130368
  0.0002408555784943  0.4999933580849078  0.8334056682221446
  0.0024374239043143  0.3408848237114813  0.6673498130460224
  0.1713701042607743  0.4953310568336365  0.3309320884919720
  0.1672657253061678  0.3346692649742786  0.5013868900033107
  0.0021867998617404  0.4996974922322521  0.4991890789200866
 -0.0047429554627604  0.3333533729417811  0.3345208400005576
  0.1672812269422115  0.4999314359559530  0.0032861251756130
  0.1691426288606080  0.3319099625577082  0.1679608918167477
  0.0013196458348583  0.5001692702171052  0.1677983070175101
  0.0004969090712531  0.3334839772921464 -0.0016111558566808
  0.1639552197028542  0.1611122434598331  0.6668655884704556
  0.1614385536316703 -0.0003807156355586  0.8318068592243369
  0.0000152250962808  0.1670591823414523  0.8295038064750015
  0.1693821791293784  0.1720314633708300  0.3342611793476738
  0.1625871692931455  0.0010381810123523  0.5003221911575076
  0.0005250065338955  0.1674297881197022  0.5030769740881964
  0.0010990467293939  0.0013785444054501  0.3286878688909338
  0.1670315035299193  0.1677551432633334 -0.0014214424982919
  0.1699702528752435  0.0002794367200228  0.1669172628192956
  0.0006483333791319  0.1686575291464173  0.1668092498900800
  0.0000763968679995  0.6660703017240652 -0.0021315237464151
  0.1669542781786791  0.6670529382251744  0.1674365283708088
  0.0008658857037360  0.8322717759748298  0.1669344278485276
  0.0010432897095324  0.6650156419948874  0.3355788403216018
  0.4980748537568364  0.3331267628445118  0.1701195074440620
  0.3360605004704930  0.4967695188877667  0.1694294112118371
  0.3334501620999141  0.3335023408123236 -0.0018508481490135
  0.4992941724903017  0.1709083518268161  0.6661226405429860
  0.4997146585826291 -0.0000867595897619  0.8344776971474256
  0.3318155903583244  0.1665240503292351  0.8313349266341884
  0.3380324540726981  0.0012386090034044  0.6659351312082415
  0.4955302437858257  0.1717039216630576  0.3344112986865923
  0.4999461550293144  0.0005339969077937  0.4983695501964937
  0.3320409594726196  0.1707638321156733  0.4982577442369281
  0.1661657192775104  0.8329388485710412 -0.0021113239308201
  0.4994843962969243  0.1672511638880889  0.0000512814149892
  0.3321514393606728 -0.0031109403453655  0.3352946812615354
  0.3333890629645584  0.1699402440833486  0.1703228775802111
  0.3320658711851043  0.0017695364067321 -0.0017143236971887
  0.1637120972882699  0.8390937722541297  0.6661742766223621
  0.1652312843851825  0.6637670020302955  0.8285281552550754
  0.0000957414553266  0.8328792320243649  0.8295399771662629
  0.0016584142306388  0.6586958357366319  0.6656358164914324
  0.1644956584758368  0.8332947695414669  0.3356257885129695
  0.1659904397870259  0.6625809416166080  0.5035135537643755
 -0.0003694910719923  0.8332315847912900  0.5037769483329877
  0.5000387895284490  0.0015286065052773  0.1668339942985582
  0.8364993111801410  0.8383357150315408  0.6663502797194285
  0.8382999988548159  0.4999831974647930  0.6662983863285000
  0.0001131604382297 -0.0002597567250258  0.6668456565070859
  0.1652024506212335  0.4981294210174230  0.6644315901132347
  0.3315088827881253  0.3348321280218151  0.3371241487871899
