Al Cu
 1.0000000000000000
    12.1297989002052375   -0.0000000000000000   -0.0000000000000000
     0.0000000000000000   12.1297989002052375    0.0000000000000000
     0.0000000000000000   -0.0000000000000000   12.1297989002052375
 Al  Cu 
 105   3
Direct
 -0.0000536009624225 -0.0011713794138166  0.0026624631196590
  0.6687032791671076  0.0010474268027223  0.3326195610301032
  0.8333338448830476  0.1664096439433637 -0.0028159654383170
  0.8333332806263105  0.0066607261313708  0.1702290152387958
  0.6671275588545057  0.1658493436500483  0.1700469021804544
  0.6667204813716642 -0.0011719966294671  0.0026630212163373
  0.5016837645893074  0.8333114432467831  0.6666451635005403
  0.5006375077924150  0.6672665255890633  0.8361432297355843
  0.3333333991198141  0.8332896353759652  0.8308006735666644
  0.3333332088503512  0.6653074129158351  0.6668017811284107
  0.4988991889168436  0.8336562725912577  0.3303986431002630
  0.6708539825072556  0.1663740702461317  0.4950772162341003
  0.5011248223224060  0.6672387408669682  0.4972690858004870
  0.3333330076672177  0.6705479006874719  0.3314000479063942
  0.4978525616290326  0.8330635349326028  0.0035547051019776
  0.4944471982334158  0.6700042533140481  0.1669748580078212
  0.3333332347569377  0.6702531574122202  0.0018235152005034
  0.5004003431276938  0.5004439755825235  0.6666434813608825
  0.5005227198319163  0.3334090547801832  0.8338925810859452
  0.3333333079201860  0.5018853786506688  0.8354608934700064
  0.3333333914409334  0.3332288582460416  0.6663360237020590
  0.5022026899196221  0.5006679697980011  0.3318971117965099
  0.5015084173209418  0.3327079281062588  0.4988183698610443
  0.3333329342741757  0.8337269299189249  0.5021568528778231
  0.8333331179677339  0.0024401828567930  0.4946626395597356
  0.6670733660129281 -0.0000634073925496  0.6649652161743010
  0.6652594150663718  0.1665432854328918  0.8337564528656668
  0.6662067863196250  0.8333455465490492  0.8360133441400041
  0.6651212572417773  0.6668926258519722  0.6662835854867070
  0.8333325316037754  0.8270684172244857  0.3319048806785809
  0.8333334091834561  0.6665746482057411  0.5027700619074013
  0.6665911601089197  0.8339505905994606  0.4965273254026411
  0.6675008527021443  0.6668934540271265  0.3295995746407661
  0.8333330289237015  0.8306407841008521  0.0027673382820063
  0.6724371549158413  0.8313557820334305  0.1668430592845084
  0.6698118343990614  0.6670451691367943  0.0045951414748984
  0.8333333343377832  0.4968400928196443  0.6648935718815724
  0.8333334513077955  0.3362277912852894  0.8350086580995623
  0.6672651479635214  0.5003275325772147  0.8351557875995869
  0.6675425292696663  0.3330907119248773  0.6648929328189174
  0.8333333892421911  0.5071040743971129  0.3293420643527275
  0.8333326885981588  0.3309987783060053  0.4957856490019619
  0.6679771221064839  0.4994300005784212  0.4979741056011965
  0.6693510094233286  0.3312992913548387  0.3323612042007238
  0.8333328664878602  0.5035702735770509  0.0052080512072655
  0.8333339484113880  0.3271068292602570  0.1697725438864499
  0.6690127785732851  0.5030009343428623  0.1674169914250112
  0.6677951630480531  0.3339034909785701  0.0018627773203849
  0.8333332309351331  0.1667527900705647  0.6694927417413087
  0.8333330114869363 -0.0029635259425437  0.8350063059047464
  0.8333332067722510  0.6666689909760387  0.8311489988909982
  0.3333331922550836  0.3345202675593487  0.3345368818963931
  0.3333332676453724  0.5013087484598723  0.4978294523195615
  0.5036901284536102  0.3342460448046677  0.1674216872905366
  0.1662662181841838  0.5004446600574098  0.6666448212277697
  0.1661448223817494  0.3334086674884290  0.8338919611715913
 -0.0005983368582103  0.5003269073353883  0.8351561254375258
 -0.0008761959058926  0.3330912987992786  0.6648928219973518
  0.1644639225549316  0.5006679487187946  0.3318965604681847
  0.1651590615426699  0.3327070292305483  0.4988186828988044
 -0.0013097697008642  0.4994298345128912  0.4979742334572720
 -0.0026851388923801  0.3312995072213133  0.3323606081589685
  0.1660628207296552  0.5019446246491258  0.0014544171965664
  0.1629770470070372  0.3342461490256964  0.1674218511164755
 -0.0023459776864922  0.5030014031472086  0.1674167902549924
 -0.0011291798871392  0.3339026612132013  0.0018632192521542
  0.1650483801028316  0.1663163270742239  0.6649493576651122
  0.1668072983832570 -0.0005948134750246  0.8351742635076036
  0.0014072472413167  0.1665430618212956  0.8337560934322320
 -0.0004065309657624 -0.0000636242221498  0.6649655189006802
  0.1697556457856251  0.1654771125174208  0.3327641151331410
  0.1658407821087541  0.0000371595935573  0.4979958892974973
 -0.0041877094170696  0.1663738815378633  0.4950768665341197
 -0.0020355067697520  0.0010471208127153  0.3326193202970759
  0.1655695563040047  0.1649388503525758  0.0021168664694431
  0.1676617558298012 -0.0029756809201889  0.1668536627999865
 -0.0004604947060418  0.1658492266735558  0.1700482730596216
 -0.0031444641182688  0.6670451976946186  0.0045953218687038
  0.5006045149184736  0.5019439862626478  0.0014543083195405
 -0.0057711076119476  0.8313549304105636  0.1668430927093645
  0.1722190759325729  0.6700046487536325  0.1669748702694929
  0.3333336545300344  0.4964860118810238  0.1667232938891741
  0.3333330596532383  0.3335310072751366 -0.0009509194307892
  0.5016180495312521  0.1663159910431349  0.6649493766636896
  0.4998597985147717 -0.0005948097048268  0.8351743379734480
  0.3333327787685670  0.1647907604455563  0.8346587474317407
  0.3333336948053900  0.0015299010806166  0.6664225470949333
  0.4969109407470585  0.1654762059806616  0.3327635464790101
  0.5008263105874347  0.0000357111113672  0.4979955186936273
  0.3333333444817507  0.1646809141385695  0.4997976903987820
  0.3333333008603938 -0.0059019252714213  0.3284025320445220
  0.4990051757073980 -0.0029756633222050  0.1668547511028380
  0.5010969490894405  0.1649382407235866  0.0021172193128974
  0.3333337471539249 -0.0043835048537337  0.0055291693962850
  0.1649820161283980  0.8333122410860834  0.6666455667008114
  0.1660289346778067  0.6672673261141199  0.8361423714077083
  0.0004596248021383  0.8333451944354321  0.8360136778289562
  0.0015451384076009  0.6668928257376036  0.6662831735570116
  0.1677667942557426  0.8336572210456867  0.3303981924366443
  0.1655428096052035  0.6672376568026657  0.4972691646362468
  0.0000766906538553  0.8339498157066778  0.4965280381645361
 -0.0008348709279360  0.6668932774478502  0.3295986294063635
  0.1688139272675422  0.8330644170551962  0.0035549689635732
  0.3333324689477525  0.1692598110096069  0.1652583117348781
  0.8333333643858731  0.8363591213819455  0.6654610410897402
  0.8333332914889184  0.1662633631757375  0.3335773895274988
  0.3333341274089733  0.8335777379343573  0.1665199993517445
  0.8333332283766564  0.6670960807514829  0.1670334935686575
