Al Cu
 1.0000000000000000
    12.1480530888119596   -0.0000000000000000   -0.0000000000000000
    -0.0000000000000000   12.1480530888119596   -0.0000000000000000
    -0.0000000000000000   -0.0000000000000000   12.1480530888119596
 Al  Cu 
 107   1
Direct
 -0.0000001345073471  0.0000083860262035 -0.0000003690930000
  0.8332376737430071  0.0000958742755773  0.5000000383982164
  0.6635399988457934  0.1697933357370631  0.4999999356787974
  0.6665586170089696  0.0001759435302289  0.3334416479923727
  0.8332449659896706  0.1666935184993732 -0.0000000496152144
  0.8332638014227034  0.0000696538419010  0.1667362843781209
  0.6665583137026809  0.1667749938441508  0.1668424108792080
  0.6666398997869660  0.0000885585550579  0.0000000451936681
  0.5000000479623721  0.8333332883448715  0.6665669124047113
  0.4999998969536443  0.6665708972336134  0.8332375553671831
  0.3333604746366479  0.8333333675363560  0.8332448150779076
  0.3334414874999264  0.6664906033233609  0.6665583644395539
  0.5000001396223099  0.8333334568078397  0.3334329640912827
  0.5000000605520135  0.6676220112282716  0.5000000179605857
  0.3334328539269085  0.8333333779956115  0.5000001360353155
  0.3334416994439537  0.6664905840203066  0.3334416529318318
  0.5000000703730559  0.8333333303343160  0.0000000714678108
  0.4999999860574533  0.6665709268968270  0.1667624321071396
  0.3333602777068825  0.8333333921070044  0.1667552499398883
  0.3333600185667784  0.6665779690996777 -0.0000001567201418
  0.5000000171148168  0.4968738132561653  0.6635405185453805
  0.5000000082013939  0.3333333884388996  0.8342892100868947
  0.3334417032219757  0.4998917367655753  0.8331572082919465
  0.3364598356974092  0.3333334442178553  0.6635400364245058
  0.8331572302843988  0.1667751907037916  0.3334416218953170
  0.5000000223918861  0.4968736578227510  0.3364595147643713
  0.6665584482724420  0.0001760128272327  0.6665582549147167
  0.8332636557731852  0.0000693340793804  0.8332635872423452
  0.6666397118547754  0.8333333048243489  0.8332447000399814
  0.6665584878758053  0.6664906458066749  0.6665583262844589
  0.8332447206380339  0.8333332472615294  0.3333603862000837
  0.8332375300978829  0.6665707704868825  0.4999998988194292
  0.6665667995035842  0.8333332752606493  0.5000000733788171
  0.6665583647587472  0.6664905717740233  0.3334414819514602
  0.8333251519625955  0.8333333963384502  0.0000001191466508
  0.8332637949133677  0.6665969022502681  0.1667361067800356
  0.6666398402151040  0.8333331944484621  0.1667552560602089
  0.6666398213640312  0.6665780993002222 -0.0000001295322770
  0.8331573112095694  0.4998918191868638  0.6665583454517897
  0.8332371881480021  0.3333329271843046  0.8332372186848334
  0.6665584029359111  0.4998917434677770  0.8331572994638492
  0.6635401485119792  0.3333332161726166  0.6635401590001901
  0.8331572415680540  0.4998917650504899  0.3334416511127428
  0.8342893525190866  0.3333333675585725  0.5000000990990525
  0.6635406376283092  0.4968737654264740  0.4999999748906474
  0.6635400829655257  0.3333333411573897  0.3364599949816929
  0.8332446502878307  0.4999732167422107  0.0000001307781078
  0.8332373500724780  0.3333330593563096  0.1667626286874747
  0.6665581324383316  0.4998916722759964  0.1668428486902357
  0.6665669909839615  0.3333333276140876 -0.0000001396209687
  0.8331575289013625  0.1667750216012551  0.6665583749429750
  0.6665584408388811  0.1667751392812502  0.8331577076045343
  0.8332639146905735  0.6665972855160904  0.8332637455525447
  0.3364595543193317  0.4968735625220964  0.5000000728320397
  0.1667362528095238  0.6665972434016803  0.1667363696028108
  0.1668427244906851  0.4998917213387313  0.6665581432047120
  0.1667627257403624  0.3333332549739486  0.8332375483544154
  0.0000001670616342  0.4999730546267617  0.8332447250769710
 -0.0000000163604015  0.3333334608911403  0.6665670539648877
  0.1668426594916812  0.4998918091790197  0.3334418757325135
  0.1657105549548978  0.3333333466819287  0.4999998672850071
 -0.0000000200145653  0.4999002319519003  0.4999999391623287
  0.0000000765664591  0.3333333307362324  0.3334329656339867
  0.1667553461309939  0.4999729595979938  0.0000001424597969
  0.1667627951039412  0.3333332308560789  0.1667625248439933
  0.0000002886588246  0.4999733603500640  0.1667552643288704
 -0.0000002117632557  0.3333333982890267  0.0000000446407792
  0.1668424628372160  0.1667749717707920  0.6665584107266052
  0.1667362769459380  0.0000696641452704  0.8332635811137432
 -0.0000000815846533  0.1666934419135141  0.8332447050234508
  0.0000000936210864  0.0000888159127935  0.6666399177182445
  0.1668425176666629  0.1667749738425658  0.3334415984300189
  0.1667626406149917  0.0000956957409070  0.5000000271166714
 -0.0000003045888533  0.1667660881798175  0.4999999869906849
  0.0000000403022994  0.0000885614185785  0.3333603065258893
  0.1667551513626394  0.1666934582301917  0.0000001896045015
  0.1667360895943765  0.0000695386822257  0.1667362343574623
 -0.0000000679741057  0.1666935854705436  0.1667552810991711
  0.0000000038205338  0.6666587270940969 -0.0000000164019363
 -0.0000001877722451  0.8333331687710719  0.1666749540954466
  0.8332447798361365  0.8333333142076154  0.6666397789015686
  0.1666748706561333  0.8333330674304131  0.0000000098521676
  0.4999998177715875  0.4999001871467166  0.0000000308655112
  0.4999999427829802  0.3333333299298721  0.1657106875168259
  0.3334417999685146  0.4998918899716640  0.1668427472625908
  0.3334332958671593  0.3333332240594070 -0.0000000817119017
  0.4999998379435627  0.1697933624328795  0.6635399865095828
  0.4999999597975948  0.0000957538507457  0.8332376856918836
  0.3334415487768563  0.1667751947416578  0.8331573101120883
  0.3334416779111096  0.0001758907613269  0.6665585275240590
  0.4999998741687750  0.1697936594420576  0.3364600252733398
  0.4999998442809307 -0.0009558336406080  0.4999998740681335
  0.3364600706104228  0.1697936399296156  0.4999999391644456
  0.3364602206173770  0.3333333727967740  0.3364601617497752
  0.3334415565370562  0.0001757653157313  0.3334415460228662
  0.5000000286469221  0.0000957785390438  0.1667626487914958
  0.3334414823130144  0.1667750931952937  0.1668424655762234
  0.3333601986614859  0.0000887373079176 -0.0000000418401283
  0.1667551656672713  0.8333332292285611  0.6666399842282131
  0.1667362003452218  0.6665970435218262  0.8332635376532255
 -0.0000000988074024  0.8333335412847620  0.8333250954124791
 -0.0000001354964736  0.6665780489212223  0.6666397380187761
  0.1667553759320237  0.8333333143656192  0.3333601305260400
  0.1667624590151980  0.6665709717538251  0.4999998982046125
 -0.0000000560264619  0.8333332332935707  0.5000002287740991
 -0.0000002331607403  0.6665781655642231  0.3333603136244447
  0.5000001409142807  0.1667660955478437 -0.0000001983808873
  0.5000001751538815  0.3333321541607213  0.5000000901629337
