Al Cu
 1.0000000000000000
    12.1446911701617424   -0.0000000000000000    0.0000000000000000
     0.0000000000000000   12.1446911701617424   -0.0000000000000000
    -0.0000000000000000   -0.0000000000000000   12.1446911701617424
 Al  Cu 
 106   2
Direct
  0.0000001070770436 -0.0000043577264346 -0.0001299045045387
  0.8327725971625004 -0.0002621463135187  0.5000878797123789
  0.6664849356127529  0.1661778874410645  0.5001816181178864
  0.6665788226136202 -0.0002623412940533  0.3338943704624957
  0.8335150417482389  0.1671554684510863  0.0001815111554668
  0.8332034298181543 -0.0000044817091528  0.1666666385311137
  0.6671831662099590  0.1670141198461074  0.1666668159951786
  0.6665786660463082 -0.0002620704123008 -0.0005607747502253
  0.4999999274143060  0.6704550574908040  0.8297029544979317
  0.3370684694675260  0.8332984020558756  0.8295980001836823
  0.3369635544109923  0.6704546578560570  0.6666666152832658
  0.5000000186414104  0.8331537608617965  0.3316162742900176
  0.4999998670733867  0.6704550632411523  0.5036301988983272
  0.3370684242365602  0.8332984411638652  0.5037353006530739
  0.3330338087009945  0.6666663840725710  0.3336327891097083
  0.5000000664937627  0.8331538148969448  0.0017172459873661
  0.4999999379534539  0.6666668414841141  0.1666664061945047
  0.3328397350363181  0.8327989677556673  0.1666668188050180
  0.3330337238890996  0.6666666203583420 -0.0002997851432015
  0.5000001914149649  0.4982818811386547  0.6666667837621810
  0.4999999630774269  0.3333379247694025  0.8334631248262172
  0.3330705045133745  0.5005523305826765  0.8335961878414804
  0.3332037873375392  0.3333377791779076  0.6666664661064955
  0.4999999285730830  0.5005341479997528  0.3338269117097107
  0.8335148589498214  0.1671554029312427  0.3331517311774105
  0.5000001214825001  0.3333376320559177  0.4998702226139539
  0.6629236229172825 -0.0037894299179294  0.6666666833668238
  0.8327727631324165 -0.0002622784301902  0.8332453736780271
  0.6629312613352788  0.8332984944794726  0.8295980791848305
  0.6630365878754068  0.6704548359151911  0.6666665574315203
  0.8330706981914299  0.8327809579173335  0.3335960900838492
  0.8330336595339185  0.6666662975678258  0.4997006195159265
  0.6629314256110258  0.8332984186826836  0.5037351889311256
  0.6669661126236106  0.6666664523831661  0.3336329802518226
  0.8330705423368157  0.8327809717559383 -0.0002627742265476
  0.8369633600709623  0.6628784955540852  0.1666667468558588
  0.6671602374071296  0.8327989282746743  0.1666667570270431
  0.6669662000566920  0.6666664159690777 -0.0002996831089087
  0.8328399212461823  0.5005339562927059  0.6666665688184555
  0.8334212752445216  0.3335952363029547  0.8338941270656510
  0.6669294226162888  0.5005523825736534  0.8335960367449430
  0.6667963785855343  0.3333377736426359  0.6666664678644240
  0.8370691129364105  0.5000349358679663  0.3295977822970788
  0.8334210306290200  0.3335956607732787  0.4994393324339060
  0.6669291767222242  0.5005523469400796  0.4997370699113015
  0.6672276286452904  0.3335954538971322  0.3332455513127566
  0.8370687291633977  0.5000350426489384  0.0037355615515559
  0.8370765332832002  0.3371229404066615  0.1666669135987203
  0.6649495005913808  0.5001795550151465  0.1666666328582224
  0.6672276004886085  0.3335955765949516  0.0000878796928423
  0.8328168364206554  0.1663191126819546  0.6666665438637486
  0.6664849258333262  0.1661779570340386  0.8331517388570552
  0.8330340227846638  0.6666667272486724  0.8336329062391388
  0.3330706337491235  0.5005526618008206  0.4997372493807399
  0.5000000459828104  0.5005342371412732 -0.0004930682464932
  0.0000001801894145  0.6628787028444419  0.0036303694197891
  0.1671601376524336  0.5005341538241640  0.6666667901142516
  0.1665786639887994  0.3335957116523541  0.8338940774113450
 -0.0000000843383414  0.5001796143306277  0.8316163497979133
  0.0000001223179558  0.3333711173836126  0.6666669024186556
  0.1629311768114603  0.5000349944625677  0.3295979696422587
  0.1665788898697363  0.3335956296920331  0.4994391235810797
  0.0000001827029530  0.5001798041981180  0.5017171727984447
  0.0000000508235207  0.3371225159191525  0.3295903051899881
  0.1629311325300729  0.5000351650066790  0.0037354552037637
  0.1629235463087766  0.3371229755387127  0.1666667962233308
 -0.0000000163432752  0.3371228388555989  0.0037430842576181
  0.1671832505539201  0.1663190868632635  0.6666666529116544
  0.1672275546892932 -0.0002622472856529  0.8332453814702501
 -0.0000001251550696  0.1670141419199322  0.8338498055372392
  0.0000002688345166 -0.0000380749463954  0.6666670521798939
  0.1664851197178847  0.1671554641481309  0.3331516716495611
  0.1672274206848756 -0.0002620295374629  0.5000876140347933
 -0.0000002361474443  0.1670146860634726  0.4994830961599566
  0.0000000832864528 -0.0000044539856036  0.3334630630165602
  0.1664848895086945  0.1671556565430715  0.0001819344352992
  0.1667963609980540 -0.0000046341824218  0.1666663837930019
 -0.0000001424115664  0.1649230065626500  0.1666667679068118
  0.0000000443067062  0.8350515395618715  0.1666667309612599
  0.3327724403079804  0.3335952902170043  0.3332455984754953
  0.1630366979666193  0.6628785006974502  0.1666668886385833
  0.0000000659172408  0.6628786204143530  0.3297030689607266
  0.4999998853110749  0.3333714956172006  0.1666666693009509
  0.3350503609028457  0.5001792729230508  0.1666665147588877
  0.3327727578891881  0.3335955916333392  0.0000877691328538
  0.5000000923631093  0.1684102113105168  0.6666666951091160
  0.4999999473377152 -0.0037897009533020  0.8295900516972708
  0.3335147286148612  0.1661778315351396  0.8331516774334843
  0.3370764649644327 -0.0037894557637128  0.6666666151535851
  0.5000000979130068  0.1663192423745666  0.3338499164431097
  0.5000001100368267 -0.0037894710141809  0.5037430318161683
  0.3335149221420251  0.1661778159937516  0.5001817374937939
  0.3334212687821735 -0.0002622344858576  0.3338940310561465
  0.1669294110262111  0.8327808932001489 -0.0002626994908626
  0.5000001261176951  0.1663188289022566 -0.0005166901785210
  0.4999997969323290 -0.0000376318720102  0.1666663792266039
  0.3328166893848173  0.1670142019555571  0.1666666973582698
  0.3334215677340164 -0.0002621406156900 -0.0005607285475973
  0.1649496703628814  0.8331535875107544  0.6666664475643513
  0.1669661899608667  0.6666662968677510  0.8336327136604438
 -0.0000002443723361  0.8327993389541299  0.8338266520923574
  0.0000001225108241  0.6666666826952536  0.6666667909973244
  0.1669294957923900  0.8327809370937705  0.3335963883740753
  0.1669661033210971  0.6666666086899073  0.4997003682255613
 -0.0000003736324883  0.8327994198639050  0.4995067632485298
  0.8350500537955956  0.8331538363116797  0.6666664164198346
  0.5000001661638024  0.8333325055719696  0.6666673293194194
  0.0000000097638230  0.5000009630852004  0.1666660455305859
