Al
 1.0000000000000000
    12.1499999999999986    0.0000000000000000    0.0000000000000000
     0.0000000000000000   12.1499999999999986    0.0000000000000000
     0.0000000000000000    0.0000000000000000   12.1499999999999986
 Al 
 108
Direct
  0.0000000000000000  0.0000000000000000  0.0000000000000000
  0.8333333333333335  0.0000000000000000  0.5000000000000000
  0.6666666666666667  0.1666666666666667  0.5000000000000000
  0.6666666666666667  0.0000000000000000  0.3333333333333334
  0.8333333333333335  0.1666666666666667  0.0000000000000000
  0.8333333333333335  0.0000000000000000  0.1666666666666667
  0.6666666666666667  0.1666666666666667  0.1666666666666667
  0.6666666666666667  0.0000000000000000  0.0000000000000000
  0.5000000000000000  0.8333333333333335  0.6666666666666667
  0.5000000000000000  0.6666666666666667  0.8333333333333335
  0.3333333333333334  0.8333333333333335  0.8333333333333335
  0.3333333333333334  0.6666666666666667  0.6666666666666667
  0.5000000000000000  0.8333333333333335  0.3333333333333334
  0.5000000000000000  0.6666666666666667  0.5000000000000000
  0.3333333333333334  0.8333333333333335  0.5000000000000000
  0.3333333333333334  0.6666666666666667  0.3333333333333334
  0.5000000000000000  0.8333333333333335  0.0000000000000000
  0.5000000000000000  0.6666666666666667  0.1666666666666667
  0.3333333333333334  0.8333333333333335  0.1666666666666667
  0.3333333333333334  0.6666666666666667  0.0000000000000000
  0.5000000000000000  0.5000000000000000  0.6666666666666667
  0.5000000000000000  0.3333333333333334  0.8333333333333335
  0.3333333333333334  0.5000000000000000  0.8333333333333335
  0.3333333333333334  0.3333333333333334  0.6666666666666667
  0.8333333333333335  0.1666666666666667  0.3333333333333334
  0.5000000000000000  0.5000000000000000  0.3333333333333334
  0.6666666666666667  0.0000000000000000  0.6666666666666667
  0.8333333333333335  0.0000000000000000  0.8333333333333335
  0.6666666666666667  0.8333333333333335  0.8333333333333335
  0.6666666666666667  0.6666666666666667  0.6666666666666667
  0.8333333333333335  0.8333333333333335  0.3333333333333334
  0.8333333333333335  0.6666666666666667  0.5000000000000000
  0.6666666666666667  0.8333333333333335  0.5000000000000000
  0.6666666666666667  0.6666666666666667  0.3333333333333334
  0.8333333333333335  0.8333333333333335  0.0000000000000000
  0.8333333333333335  0.6666666666666667  0.1666666666666667
  0.6666666666666667  0.8333333333333335  0.1666666666666667
  0.6666666666666667  0.6666666666666667  0.0000000000000000
  0.8333333333333335  0.5000000000000000  0.6666666666666667
  0.8333333333333335  0.3333333333333334  0.8333333333333335
  0.6666666666666667  0.5000000000000000  0.8333333333333335
  0.6666666666666667  0.3333333333333334  0.6666666666666667
  0.8333333333333335  0.5000000000000000  0.3333333333333334
  0.8333333333333335  0.3333333333333334  0.5000000000000000
  0.6666666666666667  0.5000000000000000  0.5000000000000000
  0.6666666666666667  0.3333333333333334  0.3333333333333334
  0.8333333333333335  0.5000000000000000  0.0000000000000000
  0.8333333333333335  0.3333333333333334  0.1666666666666667
  0.6666666666666667  0.5000000000000000  0.1666666666666667
  0.6666666666666667  0.3333333333333334  0.0000000000000000
  0.8333333333333335  0.1666666666666667  0.6666666666666667
  0.6666666666666667  0.1666666666666667  0.8333333333333335
  0.5000000000000000  0.3333333333333334  0.5000000000000000
  0.3333333333333334  0.5000000000000000  0.5000000000000000
  0.3333333333333334  0.3333333333333334  0.3333333333333334
  0.1666666666666667  0.5000000000000000  0.6666666666666667
  0.1666666666666667  0.3333333333333334  0.8333333333333335
  0.0000000000000000  0.5000000000000000  0.8333333333333335
  0.0000000000000000  0.3333333333333334  0.6666666666666667
  0.1666666666666667  0.5000000000000000  0.3333333333333334
  0.1666666666666667  0.3333333333333334  0.5000000000000000
  0.0000000000000000  0.5000000000000000  0.5000000000000000
  0.0000000000000000  0.3333333333333334  0.3333333333333334
  0.1666666666666667  0.5000000000000000  0.0000000000000000
  0.1666666666666667  0.3333333333333334  0.1666666666666667
  0.0000000000000000  0.5000000000000000  0.1666666666666667
  0.0000000000000000  0.3333333333333334  0.0000000000000000
  0.1666666666666667  0.1666666666666667  0.6666666666666667
  0.1666666666666667  0.0000000000000000  0.8333333333333335
  0.0000000000000000  0.1666666666666667  0.8333333333333335
  0.0000000000000000  0.0000000000000000  0.6666666666666667
  0.1666666666666667  0.1666666666666667  0.3333333333333334
  0.1666666666666667  0.0000000000000000  0.5000000000000000
  0.0000000000000000  0.1666666666666667  0.5000000000000000
  0.0000000000000000  0.0000000000000000  0.3333333333333334
  0.1666666666666667  0.1666666666666667  0.0000000000000000
  0.1666666666666667  0.0000000000000000  0.1666666666666667
  0.0000000000000000  0.1666666666666667  0.1666666666666667
  0.0000000000000000  0.6666666666666667  0.0000000000000000
  0.0000000000000000  0.8333333333333335  0.1666666666666667
  0.1666666666666667  0.6666666666666667  0.1666666666666667
  0.1666666666666667  0.8333333333333335  0.0000000000000000
  0.5000000000000000  0.5000000000000000  0.0000000000000000
  0.5000000000000000  0.3333333333333334  0.1666666666666667
  0.3333333333333334  0.5000000000000000  0.1666666666666667
  0.3333333333333334  0.3333333333333334  0.0000000000000000
  0.5000000000000000  0.1666666666666667  0.6666666666666667
  0.5000000000000000  0.0000000000000000  0.8333333333333335
  0.3333333333333334  0.1666666666666667  0.8333333333333335
  0.3333333333333334  0.0000000000000000  0.6666666666666667
  0.5000000000000000  0.1666666666666667  0.3333333333333334
  0.5000000000000000  0.0000000000000000  0.5000000000000000
  0.3333333333333334  0.1666666666666667  0.5000000000000000
  0.8333333333333335  0.6666666666666667  0.8333333333333335
  0.3333333333333334  0.0000000000000000  0.3333333333333334
  0.5000000000000000  0.0000000000000000  0.1666666666666667
  0.3333333333333334  0.1666666666666667  0.1666666666666667
  0.3333333333333334  0.0000000000000000  0.0000000000000000
  0.1666666666666667  0.8333333333333335  0.6666666666666667
  0.1666666666666667  0.6666666666666667  0.8333333333333335
  0.0000000000000000  0.8333333333333335  0.8333333333333335
  0.0000000000000000  0.6666666666666667  0.6666666666666667
  0.1666666666666667  0.8333333333333335  0.3333333333333334
  0.1666666666666667  0.6666666666666667  0.5000000000000000
  0.0000000000000000  0.8333333333333335  0.5000000000000000
  0.0000000000000000  0.6666666666666667  0.3333333333333334
  0.5000000000000000  0.1666666666666667  0.0000000000000000
  0.8333333333333335  0.8333333333333335  0.6666666666666667
