Al Cu
 1.0000000000000000
    12.0982866754669125    0.0000000000000000    0.0000000000000000
    -0.0000000000000000   12.0982866754669125    0.0000000000000000
     0.0000000000000000   -0.0000000000000000   12.0982866754669125
 Al  Cu 
 103   5
Direct
  0.0056847534882481  0.0001616699653039 -0.0041640427363007
  0.6694418666550815  0.0016161827631917  0.3252595660466361
  0.8342338430184130  0.1663799236094337 -0.0003286897885235
  0.8369676782029649  0.0002584494763012  0.1634828611332684
  0.6665296361541491  0.1694125412063994  0.1629636289094990
  0.6638119160254844 -0.0019565244980017  0.0068559270420520
  0.5024496865559203  0.8527826861733852  0.6713899737077867
  0.4987811615354102  0.6650380906846020  0.8323092086172635
  0.3338977921572058  0.8388350357715042  0.8314073881974220
  0.3342312921006109  0.6691182872651844  0.6706744093347418
  0.4994689998925674  0.8322491604460113  0.3352086672972882
  0.8163574671646088  0.0047373536374269  0.5019200441995864
  0.4980116816013520  0.6685512314561866  0.5052256269284107
  0.3338936023496121  0.6674160174193746  0.3331311563409860
  0.4993775808854077  0.8344115360344779 -0.0043213363375720
  0.4990001518648821  0.6660248168175755  0.1665988766280834
  0.3331980533996018  0.8346238812853906  0.1628543250904255
  0.3341915324748712  0.6672779358785690 -0.0044941283981633
  0.4928112214850496  0.4995618709130266  0.6683858470087857
  0.4982572686051168  0.3346671567998905  0.8325302144146980
  0.3355333396046667  0.3301528047756062  0.6697332110796030
  0.5034592002622719  0.4986305760316729  0.3371317530075455
  0.5003497544819744  0.3254559637119504  0.5058308651538748
  0.3378437969000171  0.8372118092135062  0.5035299439199404
  0.8316217106254289  0.1663824161115247  0.3367934471726962
  0.6609199632700304  0.1492267366394921  0.8361519682449019
  0.8354702643718140  0.0004353003368049  0.8310557405937052
  0.6613644002949127  0.8495762204291082  0.8312066550943266
  0.6635842587394954  0.6656911864972933  0.6705868516957837
  0.8326705187177441  0.8346905740913654  0.3356736818010774
  0.8348169662744969  0.6672915362649304  0.5015136878318962
  0.6659683133510796  0.8287305308689229  0.5036423846199263
  0.6668461401566295  0.6658641164607746  0.3317965096152010
  0.8324063201790809  0.8345856618911457 -0.0016072303927396
  0.8338322800628575  0.6669610565006867  0.1673623701231957
  0.6658583937801970  0.8305114346176677  0.1672008481502410
  0.6654590823672714  0.6691644194831415 -0.0038614354417122
  0.8337354506794666  0.4994974489379166  0.6649028428618222
  0.8303916140966006  0.3256103814190424  0.8304426702536106
  0.6716822370407803  0.4989259563360829  0.8340660084339721
  0.6617192491718124  0.3333490570339069  0.6682911247733099
  0.8319480804002298  0.4978384119527129  0.3345605539636769
  0.8301002916720525  0.3300853511343020  0.5033322802128130
  0.6653286046502604  0.5039006360040441  0.5026714151582586
  0.6667970628425730  0.3335993261746912  0.3349022056476532
  0.8344620755408648  0.4992194342383039  0.0016519579580064
  0.8321653999195278  0.3329699635315838  0.1678800090605251
  0.6644391371306744  0.5004899671024169  0.1605849457501724
  0.6653648120478008  0.3303929967976703 -0.0050902563287765
  0.8148274761465896  0.1629128972473011  0.6633988376389337
  0.8299448585901096  0.6724725633753895  0.8325566413977964
  0.3350004827376190  0.3317650506201196  0.3336133644658055
  0.3325467132196763  0.4993725683681378  0.4952072190328114
  0.5002714424605437  0.3343079392848942  0.1669056634223998
  0.0016999717298197  0.6674108893877000 -0.0024579137772687
  0.1743169065763571  0.4985769309080084  0.6672759573153474
  0.1693857609194945  0.3402623153039988  0.8339120279244242
 -0.0058618002693003  0.4996033611619863  0.8328265760249858
 -0.0016216749346392  0.3307750129140168  0.6669191328620048
  0.1643782544677997  0.4996048680893686  0.3327167810237699
  0.1663856102488736  0.3325086263109110  0.5025621405700095
  0.0018289211606385  0.4997179953593248  0.5010852666513070
 -0.0014232494715529  0.3316874866726693  0.3348738714577319
  0.1723005253387745  0.5003014931832430 -0.0007811879113848
  0.1673768539224780  0.3314685588480206  0.1642654061596353
  0.0016154765702523  0.4997037500310785  0.1657078441065477
  0.0015947453606780  0.3333207575028934 -0.0010224402142234
  0.1672310384095912  0.1657072896955077  0.6735979940974850
 -0.0002243490718615  0.1657462790726101  0.8313487741223031
  0.0038884974540213  0.0012414515263372  0.6692256075739342
  0.1665786865777486  0.1690027268356433  0.3337763935286344
  0.1662993577962607 -0.0015318112749151  0.4956330182839293
 -0.0003319550019210  0.1637278432674941  0.5036662275574039
 -0.0044162573978440  0.0007994781016216  0.3362635446444694
  0.1683324618675734  0.1631855839470749 -0.0109443817890363
  0.1656510858341165  0.0004377880035355  0.1731168698731594
  0.0013568142636794  0.1668384701524147  0.1638029917140478
  0.0002851674617058  0.8338683558970799  0.1644364705239985
  0.4947086667415862  0.4996512007172595 -0.0045023083679525
  0.8340502206811072  0.8339307318794986  0.6663472062137179
  0.1679706312503022  0.8366481288671425 -0.0063009071999453
  0.3338141108814817  0.4997857646254784  0.1701644710524157
  0.3335350996111286  0.3331263778838950 -0.0030991749135279
  0.5141560942394169  0.1494856135439085  0.6687596484922719
  0.3387709333361337  0.1624837196450872  0.8300147296884577
  0.3305650216654648  0.0033444706801901  0.6670884629124035
  0.5014293210727206  0.1675677731664119  0.3339156608662367
  0.5212754130519388  0.0058904172798211  0.4977219718806719
  0.3326518197041661  0.1656459856437510  0.5033521723805782
  0.3375792501353405  0.0009832506665148  0.3380619824520434
  0.1678936544233417  0.6675990350342870  0.1625846241115188
  0.4971729333420525 -0.0003354626381674  0.1704112875100452
  0.4986181801196287  0.1651164992301012 -0.0006977970883797
  0.3309079251905210  0.0002649973414768 -0.0011811492544307
  0.1669987746689827  0.8360051166553497  0.6712130010598659
  0.1693225622321940  0.6602518899450875  0.8332403481838914
  0.0027810147939589  0.8344875578014036  0.8329527367881154
  0.0036333296303725  0.6646720251541675  0.6680234856237074
  0.1673593473010877  0.8304061899814467  0.3327146308752794
  0.1672944153166172  0.6704340742287040  0.5026971945867297
 -0.0028793172357411  0.8376792509914526  0.5017547613772682
  0.0000362992125053  0.6669564087201780  0.3338835519247964
  0.3318928751725650  0.1658262280644555  0.1630355331114346
  0.1690944016154428 -0.0006416251683128  0.8317224066257293
  0.4887876707875283  0.0011656691671987  0.8442535297554620
  0.3339556798322227  0.5004470313777210  0.8322590601121175
  0.6653698920534727  0.1777956209862820  0.4903427699874978
  0.6753000768910240 -0.0090790504308514  0.6669508837565097
