Al Au
 1.0000000000000000
     8.5913473914165532    0.0000000000000000    0.0000000000000000
     4.2956736957082766    7.4403250937039020    0.0000000000000000
     0.0000000000000000    0.0000000000000000   31.0148057706539539
 Al  Au 
  36   1
Selective dynamics
Cartesian
  0.0000000000000000  0.0000000000000000 12.0000000000000000   F   F   F
  2.8637824638055176  0.0000000000000000 12.0000000000000000   F   F   F
  5.7275649276110352  0.0000000000000000 12.0000000000000000   F   F   F
  1.4318912319027588  2.4801083645679673 12.0000000000000000   F   F   F
  4.2956736957082766  2.4801083645679673 12.0000000000000000   F   F   F
  7.1594561595137938  2.4801083645679673 12.0000000000000000   F   F   F
  2.8637824638055176  4.9602167291359347 12.0000000000000000   F   F   F
  5.7275649276110352  4.9602167291359347 12.0000000000000000   F   F   F
  8.5913473914165532  4.9602167291359347 12.0000000000000000   F   F   F
  1.4318912319027588  0.8267027881893224 14.3382685902179841   F   F   F
  4.2956736957082766  0.8267027881893224 14.3382685902179841   F   F   F
  7.1594561595137947  0.8267027881893224 14.3382685902179841   F   F   F
  2.8637824638055176  3.3068111527572897 14.3382685902179841   F   F   F
  5.7275649276110352  3.3068111527572897 14.3382685902179841   F   F   F
  8.5913473914165532  3.3068111527572897 14.3382685902179841   F   F   F
  4.2956736957082766  5.7869195173252574 14.3382685902179841   F   F   F
  7.1594561595137938  5.7869195173252574 14.3382685902179841   F   F   F
 10.0232386233193118  5.7869195173252574 14.3382685902179841   F   F   F
  0.0087494481958744  1.6483555845502360 16.6189600577883994   T   T   T
  2.8550369174756036  1.6483551831546759 16.6189591049011760   T   T   T
  5.7275668662565078  1.6695269182036945 16.7418314854609989   T   T   T
  1.4318917911562399  4.1359251420865473 16.6426499632020359   T   T   T
  4.3096334391728162  4.1254525201849610 16.7418352667365156   T   T   T
  7.1454996569135449  4.1254525982366497 16.7418509472032220   T   T   T
  2.8616898810428602  6.6124118449729332 16.6426576080302766   T   T   T
  5.7275630969546336  6.6237186411737907 16.6189413663454104   T   T   T
  8.5934348852195122  6.6124165328502755 16.6426633318094055   T   T   T
  0.0030648751606193  0.0017755464926781 18.9470906607239691   T   T   T
  2.8607145065437476  0.0017657778895621 18.9470833987029295   T   T   T
  5.7275549902665661 -0.0170369292285740 18.9902904264251973   T   T   T
  1.4318946474348611  2.4765597374900890 18.9470824761825583   T   T   T
  4.2230574446880542  2.4381988819667058 18.9985565084219559   T   T   T
  7.2320851710150595  2.4381753014462162 18.9985624582528771   T   T   T
  2.8490391504400789  4.9687309947870233 18.9902887305845240   T   T   T
  5.7275610643927477  5.0440571103273868 18.9985681159880109   T   T   T
  8.6060848889765520  4.9687460852898688 18.9902968146624218   T   T   T
  5.7275747077932531  3.3068124007168653 20.7684373231686159   T   T   T
