Al Au
 1.0000000000000000
     8.5913473914165532    0.0000000000000000    0.0000000000000000
     4.2956736957082766    7.4403250937039020    0.0000000000000000
     0.0000000000000000    0.0000000000000000   31.0148057706539539
 Al  Au 
  36   1
Selective dynamics
Cartesian
  0.0000000000000000  0.0000000000000000 12.0000000000000000   F   F   F
  2.8637824638055176  0.0000000000000000 12.0000000000000000   F   F   F
  5.7275649276110352  0.0000000000000000 12.0000000000000000   F   F   F
  1.4318912319027588  2.4801083645679673 12.0000000000000000   F   F   F
  4.2956736957082766  2.4801083645679673 12.0000000000000000   F   F   F
  7.1594561595137938  2.4801083645679673 12.0000000000000000   F   F   F
  2.8637824638055176  4.9602167291359347 12.0000000000000000   F   F   F
  5.7275649276110352  4.9602167291359347 12.0000000000000000   F   F   F
  8.5913473914165532  4.9602167291359347 12.0000000000000000   F   F   F
  1.4318912319027588  0.8267027881893224 14.3382685902179841   F   F   F
  4.2956736957082766  0.8267027881893224 14.3382685902179841   F   F   F
  7.1594561595137947  0.8267027881893224 14.3382685902179841   F   F   F
  2.8637824638055176  3.3068111527572897 14.3382685902179841   F   F   F
  5.7275649276110352  3.3068111527572897 14.3382685902179841   F   F   F
  8.5913473914165532  3.3068111527572897 14.3382685902179841   F   F   F
  4.2956736957082766  5.7869195173252574 14.3382685902179841   F   F   F
  7.1594561595137938  5.7869195173252574 14.3382685902179841   F   F   F
 10.0232386233193118  5.7869195173252574 14.3382685902179841   F   F   F
  0.0000021407722336  1.6634858333249787 16.6189419730240147   T   T   T
  2.8658666992220909  1.6522005203587633 16.6426349575828958   T   T   T
  5.7254824924988599  1.6522038864162698 16.6426359625124363   T   T   T
  1.4231478287596935  4.1284642224217496 16.6189524208755621   T   T   T
  4.2956761750218231  4.1496717152027900 16.7418956579127567   T   T   T
  7.1681959410657576  4.1284646138397720 16.6189484886719967   T   T   T
  2.8777674674927258  6.6055454550195281 16.7418918842632358   T   T   T
  5.7135750952936988  6.6055403938618076 16.7418893246061558   T   T   T
  8.5913462690677953  6.6160284819288941 16.6426323444166329   T   T   T
  0.0000115437653197  0.0838606467926322 18.9985594812513270   T   T   T
  2.8785368657695458  0.0085234250464720 18.9902929669947902   T   T   T
  5.7128242167559637  0.0085263027788350 18.9903014424672349   T   T   T
  1.4288349347620615  2.4818741522682548 18.9471060152065753   T   T   T
  4.2956785429445512  2.4630647909935246 18.9903005108690799   T   T   T
  7.1625076173675186  2.4818684100918267 18.9471036317923520   T   T   T
  2.7911388385835338  4.9182710099376221 18.9985511498037063   T   T   T
  5.8001831014296554  4.9183029832900065 18.9985467936485790   T   T   T
  8.5913539365340679  4.9566832654068396 18.9471087693587066   T   T   T
  4.2956730688399132  5.7869290020055422 20.7683924029135554   T   T   T
