V4 O8
1.0
   3.6091611901999383    0.0002071129839060   -1.0867218674357990
  -0.5726694036654535    6.2376437915563878   -1.9011674157623031
  -0.0384108377496061    0.0953319755737497    6.4021565014477009
V O
4 8
direct
   0.7009958455896230    0.2815521715877116    0.4018669981812806 V
   0.2990044629220331    0.7184482267307802    0.5981327631232835 V
   0.5975078539760599    0.7017934915166136    0.1948322259999054 V
   0.4024920651990219    0.2982062891399408    0.8051675818522308 V
   0.6370940151876106    0.0118304360834468    0.2739496943819194 O
   0.3629064678842118    0.9881692830270766    0.7260502583161093 O
   0.7586631486255940    0.6441277087821391    0.5173188121470396 O
   0.2413364046712720    0.3558724975850561    0.4826810172146354 O
   0.5543420436560067    0.3673790010042267    0.1085375597848858 O
   0.4456577746261507    0.6326208461734061    0.8914622694337234 O
   0.8625407367855630    0.2920357286940097    0.7251765745009227 O
   0.1374591965044879    0.7079642953732765    0.2748232144748868 O
