Fe4 O6
1.0
 -17.3953589615845026  -44.6165810319735670   25.0568970310044996
  17.1688163342276212   44.4685502084310613   32.8127962311012240
 -30.5032762003853932   44.6167603081125392    0.0056076599749858
Fe O
4 6
direct
   0.3547122300000000    0.0643411800000000    0.6451938800000000 Fe
   0.1451907199999997    0.4356525099999999    0.8547135800000001 Fe
   0.6452829599999997    0.9356517299999998    0.3548077400000000 Fe
   0.8548025599999998    0.5643397399999998    0.1452860400000000 Fe
   0.5553559299999997    0.7500040499999997    0.0553519900000000 O
   0.2499773099999997    0.7499665799999999    0.4445831800000001 O
   0.0554193899999999    0.2499719499999999    0.2500168300000000 O
   0.7500203400000000    0.2500351799999999    0.5554146100000001 O
   0.4446512399999998    0.2500031999999999    0.9446496400000001 O
   0.9445873199999998    0.7500338899999998    0.7499815000000001 O
