Fe23 Co1 O36
1.0
-259.1133764738472678 -664.5883527580069767  373.2361722456632833
 170.4926001717047086  441.5889018386710063  325.8430190782534055
-151.4543219497182349  221.5303410580175409    0.0278430531086793
Fe Co Fe O
12 1 11 36
direct
   0.1182374100000001    0.0321705900000000    0.6451938799999999 Fe
   0.1182374100000001    0.5321705900000001    0.6451938799999998 Fe
   0.4515707433333334    0.0321705899999999    0.6451938799999998 Fe
   0.4515707433333334    0.5321705900000000    0.6451938799999998 Fe
   0.7849040766666668    0.0321705900000000    0.6451938800000000 Fe
   0.7849040766666666    0.5321705900000001    0.6451938800000000 Fe
   0.0483969066666667    0.2178262549999999    0.8547135799999999 Fe
   0.0483969066666668    0.7178262550000001    0.8547135799999998 Fe
   0.3817302400000001    0.2178262549999999    0.8547135799999998 Fe
   0.3817302400000001    0.7178262550000001    0.8547135799999999 Fe
   0.7150635733333334    0.2178262550000000    0.8547135800000001 Fe
   0.7150635733333334    0.7178262550000001    0.8547135800000001 Fe
   0.2150943200000001    0.4678258650000001    0.3548077399999999 Co
   0.2150943200000001    0.9678258650000002    0.3548077399999999 Fe
   0.5484276533333333    0.4678258650000001    0.3548077400000000 Fe
   0.5484276533333334    0.9678258650000001    0.3548077400000001 Fe
   0.8817609866666667    0.4678258650000000    0.3548077400000001 Fe
   0.8817609866666668    0.9678258650000003    0.3548077400000000 Fe
   0.2849341866666666    0.2821698699999999    0.1452860400000000 Fe
   0.2849341866666667    0.7821698700000000    0.1452860400000000 Fe
   0.6182675200000001    0.2821698699999999    0.1452860400000001 Fe
   0.6182675200000002    0.7821698700000002    0.1452860400000001 Fe
   0.9516008533333334    0.2821698700000000    0.1452860400000003 Fe
   0.9516008533333336    0.7821698700000002    0.1452860400000003 Fe
   0.1851186433333333    0.3750020250000000    0.0553519900000000 O
   0.1851186433333333    0.8750020250000001    0.0553519900000002 O
   0.5184519766666666    0.3750020250000001    0.0553519900000001 O
   0.5184519766666668    0.8750020250000002    0.0553519900000002 O
   0.8517853100000001    0.3750020250000001    0.0553519900000003 O
   0.8517853100000000    0.8750020250000002    0.0553519900000002 O
   0.0833257700000000    0.3749832900000001    0.4445831799999999 O
   0.0833257700000000    0.8749832900000003    0.4445831800000001 O
   0.4166591033333334    0.3749832900000001    0.4445831800000001 O
   0.4166591033333334    0.8749832900000003    0.4445831800000001 O
   0.7499924366666666    0.3749832900000000    0.4445831800000001 O
   0.7499924366666668    0.8749832900000003    0.4445831800000001 O
   0.0184731300000000    0.1249859750000000    0.2500168300000000 O
   0.0184731300000001    0.6249859750000001    0.2500168299999999 O
   0.3518064633333333    0.1249859750000000    0.2500168300000000 O
   0.3518064633333333    0.6249859750000001    0.2500168300000000 O
   0.6851397966666667    0.1249859750000000    0.2500168300000001 O
   0.6851397966666666    0.6249859750000000    0.2500168300000001 O
   0.2500067800000001    0.1250175900000000    0.5554146100000001 O
   0.2500067800000000    0.6250175900000000    0.5554146100000000 O
   0.5833401133333335    0.1250175899999999    0.5554146100000000 O
   0.5833401133333335    0.6250175900000000    0.5554146099999999 O
   0.9166734466666667    0.1250175900000000    0.5554146099999999 O
   0.9166734466666667    0.6250175900000001    0.5554146100000000 O
   0.1482170800000001    0.1250015999999999    0.9446496399999998 O
   0.1482170800000001    0.6250016000000000    0.9446496399999998 O
   0.4815504133333334    0.1250015999999999    0.9446496400000000 O
   0.4815504133333334    0.6250016000000000    0.9446496399999998 O
   0.8148837466666666    0.1250015999999997    0.9446496400000000 O
   0.8148837466666667    0.6250015999999999    0.9446496400000001 O
   0.3148624400000001    0.3750169450000000    0.7499815000000000 O
   0.3148624400000001    0.8750169450000000    0.7499814999999999 O
   0.6481957733333336    0.3750169450000000    0.7499814999999999 O
   0.6481957733333334    0.8750169449999999    0.7499814999999999 O
   0.9815291066666667    0.3750169449999999    0.7499815000000001 O
   0.9815291066666666    0.8750169449999999    0.7499815000000000 O
