Si P 
 1.0000000000000000
    10.8620000000000001    0.0000000000000000    0.0000000000000000
     0.0000000000000000   10.8620000000000001    0.0000000000000000
     0.0000000000000000    0.0000000000000000   10.8620000000000001
 Si  P  
  64   1
Cartesian
 -0.0067974273898584  0.0140899482581691 -0.0040954371865595
  1.3461542281900927  1.3747557531765184  1.3494416556573261
 -0.0123592141142608  2.7314709589122415  2.7055100154927376
  1.3355132438427983  4.0930556398093421  4.0585062342294265
  2.6954411724450149  0.0027753460861069  2.6993708266994298
  4.0442400664518265  1.3531513942914120  4.0524986147157138
  2.7002677890131839  2.7306937719996891 -0.0135948925564336
  4.0490098407245139  4.0934688906427814  1.3340909593448966
 -0.0064298508694973  0.0243088198585688  5.4140348402703573
  1.3316568233071842  1.3575436134034660  6.7918049149161117
 -0.0043552745152222  2.7241083427539223  8.1459146930308268
  1.3492667721359970  4.0894851102165388  9.4940270575692782
  2.7076028437307693  0.0177332956833908  8.1398119091853367
  4.0604715988281557  1.3764427541428725  9.4957879623039485
  2.6445271620093869  2.6790974438750719  5.3938866147287312
  3.9374171544992524  3.9942133827674002  6.7880550017512293
  0.0177603678831749  5.4357639016706898  0.0172058449834283
  1.3493829560826676  6.8116559712378457  1.3528399803148161
 -0.0106379432518541  8.1600812166867271  2.7129441727687937
  1.3451048279844875  9.5169792043968151  4.0671069493541578
  2.6905153216368993  5.4538066850389013  2.6951032293280730
  4.0252116479099955  6.8461323759279367  4.0226801353123882
  2.7083721608954465  8.1599289636522627 -0.0080114158203566
  4.0608750100501423  9.5179488856427188  1.3466320668643490
 -0.0100592205843261  5.4499678783123642  5.4268486546139467
  1.3463707597290857  6.8079410462011118  6.7834574037000346
  0.0110738010755679  8.1871554685429508  8.1366475177008830
  1.3582326669281708  9.5254592569182694  9.5030062483212348
  2.6957597847160137  5.4524108592872604  8.1373813865426747
  4.0631883314457484  6.7963972126562986  9.4974323787214576
  2.6994025832610018  8.1675478706415170  5.4315712699990319
  4.0582821498506361  9.5314994198363117  6.7736762697581216
  5.4098814540647959  0.0205711179253484 -0.0084855867169235
  6.7901987331988662  1.3494191744026443  1.3279218102916639
  5.3781888770011301  2.6616156686365331  2.6310118221452989
  6.7899097349092035  3.9710674366521128  3.9063990436692264
  8.1396090686883049  0.0170465818852072  2.7103680744298395
  9.4965856137227949  1.3754453694606856  4.0626579246935233
  8.1463764165824148  2.7216576470127607 -0.0009065416725394
  9.4969722260307901  4.0883628545352124  1.3497288026828198
  5.4179355163955396  0.0225015018670104  5.4205320804801520
  6.7762970645050435  1.3782970919404158  6.7769999561474430
  5.4185517023937741  2.7332929838873286  8.1408256891462596
  6.7925043925500015  4.0880816238985753  9.5260281490895569
  8.1379192010699413  0.0314852281628620  8.1388589172483972
  9.4995227217593357  1.3723502653199600  9.5007629340848432
  8.1385525995457701  2.7313588049375426  5.4172156152082387
  9.5173609286413754  4.0893492845924158  6.7946288002424735
  5.4222904600405348  5.4504536327848241 -0.0057449731692963
  6.7810488524246990  6.8103619625816139  1.3455492012831349
  5.4308274794327742  8.1702926023231246  2.6990609132481347
  6.7712276223972925  9.5333946173464295  4.0602734169454919
  8.1370814631568624  5.4524651574276985  2.6912338401793123
  9.4944406501955640  6.7952335330200464  4.0656425152575197
  8.1341317303230731  8.1882701037144194  0.0115240273054043
  9.5007172061802336  9.5250739791007248  1.3610711225588743
  5.1016025225662034  5.1048980610913599  5.0805477606030927
  7.0992447469806716  7.1568015890026508  7.0966527795351020
  5.3834504584362097  8.2237195860468137  8.1942327837987339
  6.7798792460834685  9.5510112439368502  9.5154354284342535
  8.3136304200865752  5.4353734641084639  8.3208084952171291
  9.5845921746028040  6.8747823552047054  9.5866004579213069
  8.1948367801812338  8.2283664010896143  5.3849037540891880
  9.5167025141410289  9.5526669756538229  6.7829366148274834
  6.6733417790277088  5.0637363497083099  6.6190267451574920
