P  Si
 1.0000000000000000
    10.8620000000000001    0.0000000000000000    0.0000000000000000
     0.0000000000000000   10.8620000000000001    0.0000000000000000
     0.0000000000000000    0.0000000000000000   10.8620000000000001
 P   Si 
   1  63
Cartesian
  0.0000000000000000  0.0000000000000000  0.0000000000000000
  1.3577500000000000  1.3577500000000000  1.3577500000000000
  0.0000000000000000  2.7155000000000000  2.7155000000000000
  1.3577500000000000  4.0732499999999998  4.0732499999999998
  2.7155000000000000  0.0000000000000000  2.7155000000000000
  4.0732499999999998  1.3577500000000000  4.0732499999999998
  2.7155000000000000  2.7155000000000000  0.0000000000000000
  4.0732499999999998  4.0732499999999998  1.3577500000000000
  0.0000000000000000  0.0000000000000000  5.4310000000000000
  1.3577500000000000  1.3577500000000000  6.7887500000000003
  0.0000000000000000  2.7155000000000000  8.1464999999999996
  1.3577500000000000  4.0732499999999998  9.5042499999999990
  2.7155000000000000  0.0000000000000000  8.1464999999999996
  4.0732499999999998  1.3577500000000000  9.5042499999999990
  2.7155000000000000  2.7155000000000000  5.4310000000000000
  4.0732499999999998  4.0732499999999998  6.7887500000000003
  0.0000000000000000  5.4310000000000000  0.0000000000000000
  1.3577500000000000  6.7887500000000003  1.3577500000000000
  0.0000000000000000  8.1464999999999996  2.7155000000000000
  1.3577500000000000  9.5042499999999990  4.0732499999999998
  2.7155000000000000  5.4310000000000000  2.7155000000000000
  4.0732499999999998  6.7887500000000003  4.0732499999999998
  2.7155000000000000  8.1464999999999996  0.0000000000000000
  4.0732499999999998  9.5042499999999990  1.3577500000000000
  0.0000000000000000  5.4310000000000000  5.4310000000000000
  1.3577500000000000  6.7887500000000003  6.7887500000000003
  0.0000000000000000  8.1464999999999996  8.1464999999999996
  1.3577500000000000  9.5042499999999990  9.5042499999999990
  2.7155000000000000  5.4310000000000000  8.1464999999999996
  4.0732499999999998  6.7887500000000003  9.5042499999999990
  2.7155000000000000  8.1464999999999996  5.4310000000000000
  4.0732499999999998  9.5042499999999990  6.7887500000000003
  5.4310000000000000  0.0000000000000000  0.0000000000000000
  6.7887500000000003  1.3577500000000000  1.3577500000000000
  5.4310000000000000  2.7155000000000000  2.7155000000000000
  6.7887500000000003  4.0732499999999998  4.0732499999999998
  8.1464999999999996  0.0000000000000000  2.7155000000000000
  9.5042499999999990  1.3577500000000000  4.0732499999999998
  8.1464999999999996  2.7155000000000000  0.0000000000000000
  9.5042499999999990  4.0732499999999998  1.3577500000000000
  5.4310000000000000  0.0000000000000000  5.4310000000000000
  6.7887500000000003  1.3577500000000000  6.7887500000000003
  5.4310000000000000  2.7155000000000000  8.1464999999999996
  6.7887500000000003  4.0732499999999998  9.5042499999999990
  8.1464999999999996  0.0000000000000000  8.1464999999999996
  9.5042499999999990  1.3577500000000000  9.5042499999999990
  8.1464999999999996  2.7155000000000000  5.4310000000000000
  9.5042499999999990  4.0732499999999998  6.7887500000000003
  5.4310000000000000  5.4310000000000000  0.0000000000000000
  6.7887500000000003  6.7887500000000003  1.3577500000000000
  5.4310000000000000  8.1464999999999996  2.7155000000000000
  6.7887500000000003  9.5042499999999990  4.0732499999999998
  8.1464999999999996  5.4310000000000000  2.7155000000000000
  9.5042499999999990  6.7887500000000003  4.0732499999999998
  8.1464999999999996  8.1464999999999996  0.0000000000000000
  9.5042499999999990  9.5042499999999990  1.3577500000000000
  5.4310000000000000  5.4310000000000000  5.4310000000000000
  6.7887500000000003  6.7887500000000003  6.7887500000000003
  5.4310000000000000  8.1464999999999996  8.1464999999999996
  6.7887500000000003  9.5042499999999990  9.5042499999999990
  8.1464999999999996  5.4310000000000000  8.1464999999999996
  9.5042499999999990  6.7887500000000003  9.5042499999999990
  8.1464999999999996  8.1464999999999996  5.4310000000000000
  9.5042499999999990  9.5042499999999990  6.7887500000000003
