Li C 
 1.0000000000000000
     0.0000000000000000    0.0000000000000000   -7.2990078000000000
    -4.3069322200000002   -7.4598251199999996    0.0000000000000000
    -2.1534661100000001    3.7299125599999998    0.0000000000000000
 Li  C  
   1  24
Cartesian
  0.0000000600488099 -0.0000000382436608 -0.0000000162029114
 -0.7180936163953506  1.2437763651788163 -1.8249693352344196
 -2.8710209180910837 -2.4870735219263440 -1.8250175284682046
 -0.7180950152420611  1.2437751208417693 -5.4740383501835383
 -2.8710206662794939 -2.4870749325247505 -5.4739904716615007
 -0.7206292628928916 -1.2465238811162598 -1.8236503789628313
 -2.8676743450230826 -4.9688547808760912 -1.8265572369597989
 -0.7206277640270806 -1.2465241076422693 -5.4753575218453667
 -2.8676745268917019 -4.9688558178807547 -5.4724504290423512
 -2.8768706015274788 -0.0009485322151359 -1.8265574926965544
 -5.0205640625116992 -3.7290936378837802 -1.8236501391863966
 -2.8768712437075128 -0.0009479241276745 -5.4724504596563595
 -5.0205629014704520 -3.7290928444137772 -5.4753575447900422
 -1.4353718049714657  2.4861366642200582 -1.8249693913597644
 -3.5893779490096098 -1.2428382924818371 -1.8250171341266255
 -1.4353720868769511  2.4861355985526865 -5.4740382689759732
 -3.5893790313820619 -1.2428366761287344 -5.4739900307545799
 -1.4392585969173100 -2.4909696532060472 -1.8265572897339137
 -3.5863019170016863 -6.2133002785303191 -1.8236501990120437
 -1.4392566699391021 -2.4909707507639540 -5.4724504377610366
 -3.5863022488041261 -6.2132993156344911 -5.4753580696229056
 -1.4398357011327962 -0.0008202465190920 -1.8236504444967661
 -3.5835268524882018 -3.7289655494990184 -1.8265573120693144
 -1.4398362246793259 -0.0008192717946943 -5.4753577869933343
 -3.5835271355675840 -3.7289644804256494 -5.4724503273482679
