Li C 
 1.0000000000000000
     0.0000000000000000    0.0000000000000000   -7.2990078000000000
    -4.3069322200000002   -7.4598251199999996    0.0000000000000000
    -2.1534661100000001    3.7299125599999998    0.0000000000000000
 Li  C  
   1  24
Cartesian
  0.0000000240046557 -0.0000000341032175 -3.6495039480484115
 -0.7180923542104393  1.2437736437238143 -1.8245348187881385
 -2.8710185362517837 -2.4870753999517410 -1.8244865244159139
 -0.7180929049684089  1.2437729394716808 -5.4744731941245224
 -2.8710173275427886 -2.4870743696197608 -5.4745213499699155
 -0.7206285007859631 -1.2465238936975600 -1.8258536844357485
 -2.8676749611322783 -4.9688556206492347 -1.8229465121285178
 -0.7206288171035450 -1.2465246491317965 -5.4731537380620585
 -2.8676734981663619 -4.9688539765300073 -5.4760613347916749
 -2.8768731319571583 -0.0009485520588932 -1.8229460976710889
 -5.0205626729403638 -3.7290929698838005 -1.8258537227948204
 -2.8768725035818954 -0.0009478254563933 -5.4760618636257616
 -5.0205627515200888 -3.7290924886738410 -5.4731541114824767
 -1.4353727941276371  2.4861386959078025 -1.8245343101150224
 -3.5893788251361869 -1.2428360071284275 -1.8244867918541812
 -1.4353734322727207  2.4861396555178557 -5.4744731937549496
 -3.5893803094052532 -1.2428368226607407 -5.4745210515420126
 -1.4392577768965715 -2.4909700944953275 -1.8229462854029765
 -3.5863041528893236 -6.2132999493731544 -1.8258539476975271
 -1.4392576224529159 -2.4909712178885184 -5.4760614276447885
 -3.5863044225990941 -6.2133011389473607 -5.4731538096650780
 -1.4398354376565294 -0.0008204793213234 -1.8258537523347673
 -3.5835263645026498 -3.7289646609990550 -1.8229461260142159
 -1.4398355468835538 -0.0008202556496953 -5.4731541239903869
 -3.5835264116708507 -3.7289652411695773 -5.4760617780265104
