Li C 
 1.0000000000000000
     0.0000000000000000    0.0000000000000000   -7.2990078000000000
    -4.3069322200000002   -7.4598251199999996    0.0000000000000000
    -2.1534661100000001    3.7299125599999998    0.0000000000000000
 Li  C  
   3  24
Cartesian
 -2.1534661104936648  3.7299125528420092 -5.4742558564515997
 -4.3069321639010028  0.0000000219482645 -3.6495040086165935
 -4.3069321802860250  0.0000000253548759 -3.6495038219424041
 -0.7175219966150915  1.2427821699192092 -1.8247519494509787
 -2.8720668372872784 -2.4852588341106814 -1.8247519132590135
 -0.7175219481511232  1.2427821462248270 -5.4742557681546140
 -2.8720672454608112 -2.4852583497844654 -5.4742557623301042
 -0.7165315930285661 -1.2405795916036253 -1.8247518978579458
 -2.8732733909165309 -4.9761746514631309 -1.8247519341389757
 -0.7165312582247633 -1.2405797738486024 -5.4742558712347433
 -2.8732736240688856 -4.9761747408795998 -5.4742558143682238
 -2.8677333394255320  0.0002407227782319 -1.8247519794913654
 -5.0277594337783791 -3.7296673348466332 -1.8247520057610993
 -2.8677335118715743  0.0002406024984497 -5.4742558470796743
 -5.0277595234213672 -3.7296679464452511 -5.4742559205937464
 -3.5894109511669456 -1.2427823201901647 -1.8247519722782548
 -3.5883308339395774 -1.2446539451729977 -1.8247518822457427
 -5.7428768641916310 -4.9726950120342197 -5.4742558699092596
 -3.5883308601925852 -1.2446545211667819 -5.4742557830498777
 -3.5871241485012528  1.2462624540149647 -1.8247519774745633
 -5.7438672671094002 -2.4893337902107313 -1.8247519811253454
 -3.5871239759991940  1.2462624272717848 -5.4742558634600140
 -5.7438676371671029 -2.4893328882479206 -5.4742559235211319
 -1.4326392925095566 -0.0002448898268780 -1.8247519524383593
 -3.5926648642812054 -3.7301527953963651 -1.8247519886721524
 -1.4326387908106442 -0.0002443774824816 -5.4742558593791211
 -3.5926647623961259 -3.7301529436670657 -5.4742558456466108
