C  Li
 1.0000000000000000
     7.4018730000000001    0.0000000000000000    0.0000000000000000
    -3.7009379999999998    6.4102110000000003    0.0000000000000000
     0.0000000000000000    0.0000000000000000   15.6061459999999990
 C   Li 
  72   1
Cartesian
 -0.0000003928292854 -0.0000029053321329  1.9596082847751195
 -0.0008223915828724 -0.0028795506758760 10.1083686694478612
 -1.2336416332102635  2.1367440311761361  1.9596110416795671
 -1.2365495985066930  2.1374670646135470 10.1083671356356390
 -2.4672877195192986  4.2734758465657459  1.9595065945095336
 -2.4672938394970552  4.2734739122001200 10.1126805656120382
  2.4672850042966639 -0.0000039410571925  1.9596097225147138
  2.4681104155701967 -0.0028775829361933 10.1083672514037062
  1.2336404521403259  2.1367475793707258  1.9622091750018507
  1.2336443903091576  2.1367369344337890 10.1147477004569364
 -0.0000066792672296  4.2734657595070074  1.9596084539265846
 -0.0020853620583808  4.2756240877658209 10.1083702097376111
  4.9345816930435547  0.0000024212376314  1.9569148837166599
  4.9345802876500553  0.0000006510605279 10.0975473081437439
  3.7009281741025077  2.1367459889210245  1.9596102036665901
  3.7038389781790002  2.1374666581690875 10.1083662816925930
  2.4672936373190661  4.2734634833017981  1.9596072727833556
  2.4693716867805988  4.2756264096720296 10.1083679611052286
 -0.0020834147277754 -0.0021501132104466  5.4977783418081012
 -0.0000063428073118  0.0000043764064856 13.6465346765818492
 -1.2365485702229646  2.1360089601211412  5.4977792095347668
 -1.2336448251895078  2.1367352551217733 13.6465339458187689
 -2.4672920995185970  4.2734714437375292  5.5085977961104540
 -2.4672928106935563  4.2734745944537940 13.6492317700351702
  2.4693775670941736 -0.0021484687620545  5.4977800029580965
  2.4672954638976043  0.0000044924442033 13.6465385814007742
  1.2336480420691174  2.1367371015012613  5.4913948614781356
  1.2336479744778952  2.1367349676150251 13.6439374460500371
 -0.0008216976392526  4.2763557414339886  5.4977785471895331
  0.0000056616114621  4.2734706994700629 13.6465348376537534
  4.9345820675832179  0.0000003264033386  5.4934679969544620
  4.9345871200365945  0.0000019828139177 13.6466439829182651
  3.7038411171503922  2.1360060717548834  5.4977774589192530
  3.7009333681871595  2.1367273450514954 13.6465361992366230
  2.4681127051628580  4.2763522526579383  5.4977762493729454
  2.4672840324292555  4.2734755909326214 13.6465369618416918
 -0.0000354914089653  1.4244724959609716  1.9581061790039829
 -0.0026130788116946  1.4229852230912403 10.1058790778301830
 -1.2336285809058931  3.5612189708488367  1.9572509373540525
 -1.2351478056021961  3.5620969204778237 10.1072054773118616
 -2.4672892829789825  5.6979848395478738  1.9572494585029101
 -2.4672926145364200  5.6962348136834331 10.1072039838410515
  2.4673257010104384  1.4244692195783994  1.9581054007669041
  2.4699018922548821  1.4229848985587248 10.1058786410710564
  1.2336430292022333  3.5612766487670608  1.9581039754127940
  1.2336424468730287  3.5642438633157947 10.1058803399723018
  0.0000609099999245  5.6979968319039074  1.9553769664430314
  0.0003455954483916  5.6981654419380909 10.0972662054680473
  4.9345759934477087  1.4244292202845958  1.9553759835862894
  4.9345798173361555  1.4240911793533455 10.0972631356639511
  3.7009251227594127  3.5612173830902480  1.9572504379178135
  3.7024328486093134  3.5620944899587492 10.1072025005530453
  2.4672250292151112  5.6979910726711012  1.9553752823044754
  2.4669395193914476  5.6981685788572083 10.0972687951786995
  1.2336479879891349  0.7092311366700106  5.5002662559685671
  1.2336459759634026  0.7122007603512800 13.6480400200103187
 -0.0026111911003145  2.8504916622367924  5.5002661639340547
 -0.0000378273333467  2.8490042165220224 13.6480400360820848
 -1.2339949038200422  4.9855193606770714  5.5088807446150243
 -1.2337016725692413  4.9856846213800585 13.6507701712355942
  3.7024368548275817  0.7113809401298280  5.4989445051331876
  3.7009227760322041  0.7122533647253549 13.6488969236409368
  2.4699021720237631  2.8504876337249780  5.5002654709812271
  2.4673317347601156  2.8490061363513512 13.6480410588765650
  1.2336455762497374  4.9874534172356979  5.4989430825797845
  1.2336397516992430  4.9856997240910923 13.6488978262553680
  6.1667268963799629  0.7113787191129834  5.4989446707705483
  6.1682443968426375  0.7122640218895382 13.6488944042400178
  4.9345816935362805  2.8493831153700713  5.5088795793403227
  4.9345774273330312  2.8490539525779321 13.6507707785725270
  3.7012846317511552  4.9855197518848593  5.5088778354505976
  3.7009966591416084  4.9856787715193418 13.6507691751746396
  1.2336459559405950  2.1367203166580704  7.8030694728348884
