C  Li
 1.0000000000000000
     7.4018730000000001    0.0000000000000000    0.0000000000000000
    -3.7009379999999998    6.4102110000000003    0.0000000000000000
     0.0000000000000000    0.0000000000000000   15.6061459999999990
 C   Li 
  72   1
Cartesian
  0.0000015671591752 -0.0000075116551421  1.9596093758853772
  0.0020874460280790  0.0021498932969796 10.1083790046198310
 -1.2336465662317408  2.1367382834943358  1.9569117065666319
 -1.2336476399688792  2.1367365387417832 10.0975684728925934
 -2.4672967282505986  4.2734799964962376  1.9596113355871481
 -2.4643905564015416  4.2742073023896081 10.1083769854292758
  2.4672914160372481  0.0000068035013654  1.9595047158640051
  2.4672892246613918  0.0000001036592576 10.1126878151042163
  1.2336461742178020  2.1367336714387921  1.9596117082800548
  1.2328244269898003  2.1338554902790206 10.1083792636425933
  0.0000022626002446  4.2734809250597490  1.9596141883491149
 -0.0029081377293940  4.2742056996529723 10.1083776725267942
  4.9345749976130993 -0.0000047425878064  1.9596102961804622
  4.9324974305112210  0.0021513156242814 10.1083787280885371
  3.7009321131543538  2.1367354477568870  1.9596113462492912
  3.7017536733561798  2.1338585538934391 10.1083786905162452
  2.4672905524131781  4.2734772470325204  1.9622058153578006
  2.4672909836021675  4.2734753225979185 10.1147329491908380
  0.0008202668692484  0.0028820405161674  5.4977685910043084
 -0.0000093691512770 -0.0000013941559950 13.6465362941688362
 -1.2336474588359441  2.1367339374469823  5.4934550239870559
 -1.2336446945700226  2.1367344076880972 13.6466391435875884
 -2.4643863469474172  4.2727430880787765  5.4977686475147527
 -2.4672975510245072  4.2734618822535095 13.6465353359495065
  2.4672903275994020  0.0000005603834687  5.5085773580315269
  2.4672955568278434  0.0000050091091238 13.6492358843059876
  1.2315616196752663  2.1345875032709181  5.4977668419048280
  1.2336443082785986  2.1367395085874654 13.6465389752489106
 -0.0029057596503830  4.2727399732136737  5.4977666199682389
  0.0000007432127927  4.2734667054932629 13.6465377595729827
  4.9337632278378445  0.0028814814066249  5.4977658494364645
  4.9345922304322274  0.0000017384772927 13.6465322250925265
  3.7030215915273699  2.1345852146560902  5.4977658985392104
  3.7009440962256526  2.1367462331144833 13.6465362013231211
  2.4672895835923616  4.2734739740736369  5.4914109046460116
  2.4672945035225138  4.2734699471689144 13.6439384845040177
 -0.0000622960692682  1.4245234738673804  1.9553758307746880
 -0.0003495190586685  1.4246930960423834 10.0972886230454542
 -1.2336446383216986  3.5611646485376842  1.9553760614799636
 -1.2336486972762393  3.5608254661960794 10.0972868312953103
 -2.4673050426816467  5.6979536221571774  1.9572503661811980
 -2.4657937075539342  5.6988329099624115 10.1072120658333304
  2.4672948596719317  1.4245127961841841  1.9572497390610923
  2.4672906049927410  1.4227574858843621 10.1072128601142470
  1.2336080600888406  3.5612059016823268  1.9581051785770689
  1.2310281370683804  3.5597181722910327 10.1058804521293588
  0.0000109843571244  5.6979551873162952  1.9572514790273641
 -0.0015054981140645  5.6988352743724731 10.1072107698331806
  4.9346393664076622  1.4245207190987834  1.9553744805487892
  4.9349289381108363  1.4246931372178666 10.0972879784968068
  3.7009704192958028  3.5612058733476299  1.9581037423680416
  3.7035496588506303  3.5597225593188555 10.1058810056790964
  2.4672866786734566  5.6980080888565867  1.9581028835706886
  2.4672933539891049  5.7009834615861879 10.1058807120645096
  1.2339946778786186  0.7120459599362543  5.5088586381185394
  1.2337088933834210  0.7122107758719746 13.6507722788984296
 -0.0015029404547605  2.8481137336536451  5.4989323684957521
  0.0000208625593237  2.8489968857720784 13.6488983567592186
 -1.2336449605527939  4.9861226068238356  5.5088589087949336
 -1.2336502993075444  4.9857923076624768 13.6507718597968761
  3.7005864823094052  0.7120438603341750  5.5088557510998344
  3.7008778410624781  0.7122176082760863 13.6507700081281254
  2.4672931719994144  2.8459631662943199  5.5002642876557726
  2.4672935821377542  2.8489418199082301 13.6480453192223479
  1.2310303194824583  4.9872287794854824  5.5002644794599966
  1.2336109395739854  4.9857385254015423 13.6480430146025942
  6.1682288656735862  0.7139798849732438  5.4989331898788709
  6.1682239851671676  0.7122234833437352 13.6488948065993405
  4.9360852237745947  2.8481162559165476  5.4989323552577831
  4.9345610492834382  2.8489900504592094 13.6488944090138968
  3.7035478099289025  4.9872304416742956  5.5002664778475490
  3.7009667488129989  4.9857359217329975 13.6480423444352610
  2.4672982937830148  4.2734644263335353  7.8030732397692368
