Al
 1.0000000000000000
     8.0999999999999996    0.0000000000000000    0.0000000000000000
     0.0000000000000000    8.0999999999999996    0.0000000000000000
     0.0000000000000000    0.0000000000000000    8.0999999999999996
 Al 
  32
Cartesian
  0.0000000000000000  0.0000000000000000  0.0000000000000000
  0.0000000000000000  2.0249999999999999  2.0249999999999999
  2.0249999999999999  0.0000000000000000  2.0249999999999999
  2.0249999999999999  2.0249999999999999  0.0000000000000000
  0.0000000000000000  0.0000000000000000  4.0499999999999998
  0.0000000000000000  2.0249999999999999  6.0749999999999993
  2.0249999999999999  0.0000000000000000  6.0749999999999993
  2.0249999999999999  2.0249999999999999  4.0499999999999998
  0.0000000000000000  4.0499999999999998  0.0000000000000000
  0.0000000000000000  6.0749999999999993  2.0249999999999999
  2.0249999999999999  4.0499999999999998  2.0249999999999999
  2.0249999999999999  6.0749999999999993  0.0000000000000000
  0.0000000000000000  4.0499999999999998  4.0499999999999998
  0.0000000000000000  6.0749999999999993  6.0749999999999993
  2.0249999999999999  4.0499999999999998  6.0749999999999993
  2.0249999999999999  6.0749999999999993  4.0499999999999998
  4.0499999999999998  0.0000000000000000  0.0000000000000000
  4.0499999999999998  2.0249999999999999  2.0249999999999999
  6.0749999999999993  0.0000000000000000  2.0249999999999999
  6.0749999999999993  2.0249999999999999  0.0000000000000000
  4.0499999999999998  0.0000000000000000  4.0499999999999998
  4.0499999999999998  2.0249999999999999  6.0749999999999993
  6.0749999999999993  0.0000000000000000  6.0749999999999993
  6.0749999999999993  2.0249999999999999  4.0499999999999998
  4.0499999999999998  4.0499999999999998  0.0000000000000000
  4.0499999999999998  6.0749999999999993  2.0249999999999999
  6.0749999999999993  4.0499999999999998  2.0249999999999999
  6.0749999999999993  6.0749999999999993  0.0000000000000000
  4.0499999999999998  4.0499999999999998  4.0499999999999998
  4.0499999999999998  6.0749999999999993  6.0749999999999993
  6.0749999999999993  4.0499999999999998  6.0749999999999993
  6.0749999999999993  6.0749999999999993  4.0499999999999998
