Al Cu Al Cu Al
 1.0000000000000000
    12.1447062971462287   -0.0000000093279940    0.0000000060881684
    -0.0000000093279948   12.1447078972900329    0.0000000024953285
     0.0000000060881684    0.0000000024953289   12.1447062801055630
 Al  Cu  Al  Cu  Al 
  15   1  61   1  30
Cartesian
 -0.0015622563383627  0.0000594943486057  0.0000034633170607
 -0.0031647365395209  2.0307962319579342  2.0272826650455551
  2.0241162715740355  0.0000569392852920  2.0256814587619374
  2.0241183470595479  2.0033104133477111 -0.0000011735570299
 -0.0067734222459539  0.0031716725556802  4.0492948172045500
  0.0207993928566442  2.0262932921455299  6.0723524768016466
  2.0241178426010529  0.0004704039733826  6.0723507718373826
  2.0241186193065785  2.0305653595523143  4.0422872246009653
 -0.0067762849550581  0.0031694730754065  8.0954082204180082
 -0.0031653949718859  2.0307955882760762 10.1174237019973106
  2.0241204850505143  0.0000576994493572 10.1190258874764094
  2.0241160674852923  2.0305664906341199  8.1024193566710565
  0.0440651428154806  4.0942118783599772 -0.0000013879599363
  0.0453419356805795  6.0719260524384273  1.9787770053447882
  2.0241176204166762  4.0942128660736348  1.9800507213776983
  2.0241146479282563  6.0723494834213776 -0.0000006686485615
 -0.0036207369818617  4.0482376262081550  4.0446183966678575
 -0.0059496312614783  6.0659069687642511  6.0723501609204389
  2.0241194322217293  4.0482362370575462  6.0723541732512549
  2.0241166266694908  6.0701809627395527  4.0690336008438139
 -0.0036198071578038  4.0482392988896700  8.1000911378043519
  0.0453379715875903  6.0719259590734174 10.1659249885213949
  2.0241181507059562  4.0942105493426899 10.1646538167373937
  2.0241205591647233  6.0701804216162243  8.0756710371371803
  0.0454398684309886  8.0504754871599751  0.0000027134596227
  0.0021939810611965 10.1146866673756026  2.0219203202242468
  2.0241177754456143  8.0504758315208615  1.9786833035160458
  2.0241203661849902 10.1417069010042500 -0.0000023258602917
  0.0010596706773846  8.0933027614200697  4.0414615427757150
 -0.0062356043183965 10.1247826375112169  6.0723528594138410
  2.0241207592400681  8.0960058334996781  6.0723521632328774
  2.0241167563141418 10.1163949464670964  4.0420014935468611
  0.0010602503472281  8.0933011451242560  8.1032456442647778
  0.0021927103613659 10.1146880798903531 10.1227825826677247
  2.0241171651155159  8.0504732609973821 10.1660254261853353
  2.0241162881051560 10.1163959860034698  8.1027078579719838
  4.0497972404610243  0.0000549393414787  0.0000001122109351
  4.0514014517057868  2.0307940987383946  2.0272834096431014
  6.0734153847012760  0.0031745173047451  2.0308918295504190
  6.0664045214314752  2.0305634785944862 -0.0000024024380742
  4.0550121761965601  0.0031701624235925  4.0492996279919415
  4.0274371521857910  2.0262901779142100  6.0723543669955449
  6.1177922617455636  0.0459986147714789  6.0723531518106419
  6.1176908779124615  2.0245489835387458  4.0935712345649655
  4.0550124278305066  0.0031717099371716  8.0954109155934795
  4.0514007699337444  2.0307971818387967 10.1174266032816842
  6.0734128462387922  0.0031738749314594 10.1138123665147255
  6.1176921047501551  2.0245452808660067  8.0511296354045125
  4.0041698276358044  4.0942122886981593  0.0000018101458213
  4.0028966296546562  6.0719283325854541  1.9787793119055752
  6.0687334913159852  4.0482333460219442  2.0277389225001774
  6.0931528759822537  6.0701777547814890  0.0000021121288127
  4.0518524417508441  4.0482368227017318  4.0446176065956134
  4.0541829599815413  6.0659048072755386  6.0723547807716649
  6.1164235321671097  4.0022588706384630  6.0723514649983832
  6.0691869597106978  6.0656768921970166  4.0450680537911188
  4.0518544745255296  4.0482353745888879  8.1000905251592723
  4.0028960701896992  6.0719269436119010 10.1659267314756434
  6.0687361055116451  4.0482349943019571 10.1169694169755395
  6.0691859380843791  6.0656783319640741  8.0996392719615287
  4.0027959944092064  8.0504751382641597 -0.0000001271040160
  4.0460392686140096 10.1146881214095146  2.0219221410736830
  6.0655758331239022  8.0933008811666483  2.0230566521968032
  6.0661187319775367 10.1164000320555818 -0.0000016952213143
  4.0471747891244139  8.0932966390168435  4.0414593012175661
  4.0544673027017648 10.1247770696595172  6.0723535543067788
  6.0707901614546067  8.0964175273684393  6.0723540353083418
  6.0745465277865236 10.1264936164477160  4.0504289670079601
  4.0471773882836608  8.0933014521770144  8.1032439175892268
  4.0460419575946256 10.1146874196547643 10.1227835034768159
  6.0655724705161314  8.0932972093584805 10.1216510035092888
  6.0745488226852258 10.1264946437708883  8.0942754841478628
  8.0964734145364314  0.0004688169833602  0.0000022478274257
  8.0964715475425191  2.0262922097920737  2.0033173362726053
 10.1195243065703568  0.0031685477344642  2.0308935514907742
 10.1265364993061695  2.0305637472841305  0.0000019719622476
  8.0964692848428825  0.0459980333744213  4.0936753432333957
  8.0964614395982082  2.0241230977488085  6.0723544564291529
 10.0751532782155628  0.0459987562741295  6.0723535685017085
 10.0752518157719422  2.0245448458694630  4.0935714965826566
  8.0964733131132309  0.0459980781930045  8.0510344495999959
  8.0964700575608877  2.0262900629322820 10.1413864979126345
 10.1195271531477111  0.0031697740531751 10.1138148837867323
 10.0752522335633898  2.0245472467723440  8.0511344605270843
  8.0964694375855508  4.0482386439396798  0.0000017186578294
  8.0964710200478862  6.0659064322739340  2.0300671191300297
 10.1242079261464593  4.0482396008294241  2.0277344439437490
 10.0997933538435110  6.0701812586635677 -0.0000034413583790
  8.0964714821167014  4.0022561603184625  4.0923059723997115
  8.0964750394214580  6.0931644741409237  6.0723504839905802
 10.0765202329259793  4.0022563213780371  6.0723555693138387
 10.1237518561236097  6.0656749983025202  4.0450695068013447
  8.0964713619506785  4.0022586280898906  8.0523988151169767
  8.0964729460892144  6.0659056465759802 10.1146385325048289
 10.1242042041734024  4.0482333704420688 10.1169722290532835
 10.1237548222199827  6.0656748166333276  8.0996400875640795
  8.0964708260037934  8.0960028205888968 -0.0000010052135164
  8.0964716585440772 10.1247796142709792  2.0303527252937297
 10.1273645019639229  8.0932968238616176  2.0230556908842661
 10.1268249297781097 10.1164011341408546 -0.0000028505428786
  8.0964677260446845  8.0964167518221029  4.0466714462187072
  8.0964712618191719 10.0994744227606112  6.0723536198363108
 10.1221546246434624  8.0964146412474580  6.0723549458920214
 10.1183961166652310 10.1264914300415665  4.0504304609614232
  8.0964703747409388  8.0964134660563580  8.0980346555339917
  8.0964686578273941 10.1247817118258965 10.1143543118384756
 10.1273654534633604  8.0933008374344162 10.1216497609683849
 10.1183924825728422 10.1264895505420718  8.0942748386506924
