Ag
 1.0000000000000000
     0.0000000000000000    4.1718000000000002    4.1718000000000002
     4.1718000000000002    0.0000000000000000    4.1718000000000002
     4.1718000000000002    4.1718000000000002    0.0000000000000000
 Ag 
   8
Cartesian
  0.0000000000000000  0.0000000000000000  0.0000000000000000
  2.0859000000000001  2.0859000000000001  0.0000000000000000
  2.0859000000000001  0.0000000000000000  2.0859000000000001
  4.1718000000000002  2.0859000000000001  2.0859000000000001
  0.0000000000000000  2.0859000000000001  2.0859000000000001
  2.0859000000000001  4.1718000000000002  2.0859000000000001
  2.0859000000000001  2.0859000000000001  4.1718000000000002
  4.1718000000000002  4.1718000000000002  4.1718000000000002
